%nprocshared=4
%mem=100MW
%chk=AFYCEAFSNDLKSX-UHFFFAOYSA-N.chk
#b3lyp/6-31+G(d) opt freq

gas opt

0 1
O   -3.9443   -2.0614    0.3854
C   -3.1302   -1.1691    0.2282
O   -1.8213   -1.4646    0.2631
C   -0.8790   -0.5121    0.0941
C   -1.2649    0.8244   -0.1244
C   -2.6908    1.1530   -0.1640
C   -3.1525    2.5688   -0.3949
C   -3.5869    0.1460    0.0086
C   -0.2921    1.8157   -0.2993
C    1.0303    1.4833   -0.2575
C    1.4197    0.1608   -0.0414
N    2.7724   -0.1630   -0.0014
C    3.7817    0.8828   -0.1857
C    4.1476    1.4837    1.1730
C    3.1873   -1.5496    0.2252
C    3.3172   -2.2691   -1.1188
C    0.4680   -0.8340    0.1334
H   -3.2746    2.7414   -1.4642
H   -4.1056    2.7270    0.1098
H   -2.4114    3.2621    0.0028
H   -4.6464    0.3543   -0.0149
H   -0.5878    2.8407   -0.4673
H    1.7805    2.2483   -0.3929
H    4.6718    0.4519   -0.6440
H    3.3818    1.6637   -0.8325
H    4.8985    2.2618    1.0358
H    3.2574    1.9146    1.6313
H    4.5475    0.7028    1.8198
H    4.1489   -1.5619    0.7383
H    2.4419   -2.0564    0.8381
H    3.6259   -3.3008   -0.9503
H    2.3557   -2.2568   -1.6320
H    4.0626   -1.7623   -1.7317
H    0.7764   -1.8554    0.3010


