%nprocshared=4
%mem=100MW
%chk=AGMMTXLNIQSRCG-UHFFFAOYSA-N.chk
#b3lyp/6-31+G(d) opt freq

gas opt

0 1
Cl   -2.4591   -2.1973   -0.0559
C   -1.0785   -1.1537   -0.1921
C   -1.2289    0.2138   -0.0105
S   -2.8188    0.8770    0.3592
O   -3.3483    0.0856    1.4140
O   -2.6546    2.2854    0.4515
N   -3.7826    0.6040   -0.9594
C   -0.1434    1.0576   -0.1168
C    1.1118    0.5287   -0.4084
C    2.3033    1.3857   -0.5392
O    2.1851    2.5919   -0.6388
N    3.5268    0.8173   -0.5468
C    3.6954   -0.6219   -0.3476
C    3.8436   -0.9125    1.1472
C    5.0680   -0.1738    1.6914
N    2.5318   -1.3479   -0.8708
C    1.2617   -0.8585   -0.5880
C    0.1637   -1.6926   -0.4751
H   -3.4228    0.1501   -1.7375
H   -4.7070    0.8980   -0.9538
H   -0.2656    2.1213    0.0247
H    4.3092    1.3734   -0.6873
H    4.5913   -0.9562   -0.8708
H    2.9512   -0.5737    1.6734
H    3.9694   -1.9847    1.2982
H    5.9604   -0.5126    1.1651
H    4.9422    0.8984    1.5404
H    5.1736   -0.3808    2.7563
H    2.6465   -2.1512   -1.4023
H    0.2750   -2.7581   -0.6115


