%nprocshared=4
%mem=100MW
%chk=AIKKULXCBHRFOS-UHFFFAOYSA-N.chk
#b3lyp/6-31+G(d) opt freq

gas opt

0 1
S    3.4487    0.5829   -0.1204
P    1.7003    0.0710    0.2721
S    0.7355   -0.5681   -1.5042
C   -0.8589   -1.1889   -0.9018
C   -1.7621   -0.0260   -0.5812
O   -1.4131    1.1040   -0.8476
N   -2.9580   -0.2422    0.0017
C   -3.7658    0.7979    0.2884
O   -4.8414    0.6034    0.8126
C   -3.3798   -1.6077    0.3236
O    1.7209   -1.1371    1.3361
C    2.0765   -2.4762    0.9865
O    0.9020    1.3222    0.8960
C    0.9680    2.6398    0.3467
H   -1.3219   -1.8074   -1.6706
H   -0.7007   -1.7847   -0.0028
H   -3.4548    1.8045    0.0510
H   -3.0478   -1.8628    1.3300
H   -4.4665   -1.6741    0.2717
H   -2.9387   -2.3023   -0.3914
H    1.4419   -2.8191    0.1693
H    3.1200   -2.5049    0.6728
H    1.9389   -3.1261    1.8507
H    2.0002    2.9896    0.3646
H    0.6078    2.6230   -0.6819
H    0.3464    3.3117    0.9385


