%nprocshared=4
%mem=100MW
%chk=AIVXUNRQBRKFJO-UHFFFAOYSA-N.chk
#b3lyp/6-31+G(d) opt freq

gas opt

0 1
S   -2.9008   -0.1576   -0.1211
O   -3.1854   -1.4475   -0.6447
O   -3.3663    1.0442   -0.7196
N   -3.4611   -0.1514    1.4372
C   -1.1453   -0.0278   -0.0447
S   -0.2899    1.4466   -0.0446
C    1.2548    0.6166    0.0540
C    2.5207    1.2171    0.1006
O    2.6024    2.4293    0.0550
C    3.7778    0.4040    0.2059
C    3.6634   -0.9049   -0.5728
S    2.3612   -1.9313    0.1627
C    1.0301   -0.7612    0.0754
C   -0.3169   -1.0703    0.0262
H   -3.9667   -0.9077    1.7739
H   -3.2838    0.6085    2.0134
H    4.6112    0.9834   -0.1914
H    3.9698    0.1790    1.2550
H    3.4132   -0.6894   -1.6115
H    4.6135   -1.4375   -0.5303
H   -0.6744   -2.0893    0.0416


