%nprocshared=4
%mem=100MW
%chk=AKUJBENLRBOFTD-UHFFFAOYSA-N.chk
#b3lyp/6-31+G(d) opt freq

gas opt

0 1
F    2.1147   -0.3094    1.9369
C    1.9935    0.0357    0.5865
C    3.3609    0.4286    0.1066
C    4.1518    0.7262    1.3821
C    4.1541   -0.6216   -0.5936
C    5.3545   -0.2568   -1.1007
C    5.6936    1.1822   -0.9272
O    6.8085    1.5601   -0.6192
C    4.5635    2.1237   -1.1590
C    3.3759    1.7243   -0.6556
C    3.6861   -2.0287   -0.8230
C    2.4661   -2.3368    0.0466
C    1.4564   -1.1979   -0.1477
C    0.1266   -1.5605    0.4858
C   -0.8422   -0.3788    0.2079
C   -0.7948   -0.0104   -1.2763
C   -2.2102   -0.9582    0.5510
O   -2.5092   -0.7384    1.9310
C   -3.2733   -0.3373   -0.3182
O   -3.1852   -0.4044   -1.5207
C   -4.4462    0.3673    0.3133
O   -5.3228    0.8753   -0.7267
C   -6.4228    1.5337   -0.3288
O   -6.6457    1.6806    0.8496
C   -7.3796    2.0896   -1.3518
C   -2.0961   -2.4758    0.2616
C   -3.0421   -2.8661   -0.8758
C   -0.6230   -2.7321   -0.1586
C   -0.3762    0.7978    1.0421
C    1.0124    1.1998    0.5077
O    1.5241    2.2755    1.2970
H    4.1837   -0.1667    2.0064
H    5.1673    1.0222    1.1192
H    3.6677    1.5351    1.9293
H    6.0152   -0.9553   -1.5927
H    4.6829    3.0519   -1.6981
H    2.4816    2.3171   -0.7790
H    3.4200   -2.1525   -1.8728
H    4.4903   -2.7205   -0.5724
H    2.0208   -3.2823   -0.2630
H    2.7633   -2.3927    1.0938
H    1.3345   -0.9809   -1.2089
H    0.2458   -1.7130    1.5584
H   -1.1121   -0.8655   -1.8732
H   -1.4622    0.8309   -1.4633
H    0.2235    0.2658   -1.5498
H   -3.3681   -1.0859    2.2076
H   -4.9959   -0.3337    0.9415
H   -4.0868    1.1965    0.9227
H   -8.1352    1.3402   -1.5876
H   -7.8638    2.9799   -0.9504
H   -6.8320    2.3509   -2.2573
H   -2.3349   -3.0468    1.1589
H   -2.7782   -2.3094   -1.7750
H   -2.9540   -3.9348   -1.0712
H   -4.0680   -2.6321   -0.5916
H   -0.5211   -2.7051   -1.2435
H   -0.2682   -3.6826    0.2396
H   -1.0711    1.6301    0.9300
H   -0.3114    0.5065    2.0904
H    0.9147    1.5320   -0.5258
H    0.9706    3.0684    1.2874


