%nprocshared=4
%mem=100MW
%chk=AMEKQAFGQBKLKX-UHFFFAOYSA-N.chk
#b3lyp/6-31+G(d) opt freq

gas opt

0 1
O    0.6350    0.3128   -1.5061
C    0.2460    0.3102   -0.3524
N    1.1368    0.3059    0.6590
C    2.4967    0.1180    0.3924
C    3.3262   -0.4325    1.3608
C    4.6688   -0.6167    1.0942
C    5.1874   -0.2533   -0.1351
C    4.3642    0.2951   -1.1014
C    3.0195    0.4762   -0.8435
C   -1.1437    0.3174   -0.0729
C   -1.7563    1.4676    0.2167
O   -3.0454    1.6171    0.5139
C   -4.0334    0.6358    0.1238
C   -3.6272   -0.7369    0.6874
S   -2.0562   -1.1949   -0.1171
O   -2.2557   -1.4603   -1.4988
O   -1.3083   -2.0808    0.7045
C   -0.9089    2.7138    0.2069
H    0.8347    0.4332    1.5720
H    2.9220   -0.7159    2.3213
H    5.3144   -1.0447    1.8469
H    6.2377   -0.3977   -0.3408
H    4.7724    0.5782   -2.0604
H    2.3771    0.9045   -1.5987
H   -5.0070    0.9202    0.5227
H   -4.0849    0.5827   -0.9637
H   -3.4910   -0.6703    1.7668
H   -4.3929   -1.4765    0.4531
H   -0.8273    3.0896   -0.8131
H   -1.3716    3.4728    0.8378
H    0.0850    2.4804    0.5887


