%nprocshared=4
%mem=100MW
%chk=AMMPGYPPRLWMLW-UHFFFAOYSA-N.chk
#b3lyp/6-31+G(d) opt freq

gas opt

0 1
O    3.7522   -0.7011    0.0013
N    3.0479    0.2926    0.0008
O    3.5562    1.3994   -0.0041
C    1.5742    0.1551    0.0000
C    0.9989   -1.1022   -0.0002
C   -0.3818   -1.2325   -0.0005
N   -0.9666   -2.5041   -0.0002
C   -1.1854   -0.0939   -0.0005
O   -2.5400   -0.2156   -0.0003
C   -3.3001    0.9945   -0.0004
C   -4.7929    0.6591   -0.0002
C   -0.6013    1.1615   -0.0003
C    0.7765    1.2838    0.0053
H    1.6246   -1.9825   -0.0005
H   -0.4061   -3.2957    0.0001
H   -1.9325   -2.5937   -0.0004
H   -3.0581    1.5756    0.8894
H   -3.0583    1.5753   -0.8905
H   -5.0348    0.0780   -0.8901
H   -5.0346    0.0783    0.8899
H   -5.3726    1.5822   -0.0003
H   -1.2218    2.0455   -0.0004
H    1.2302    2.2638    0.0058


