%nprocshared=4
%mem=100MW
%chk=AMQJEAYHLZJPGS-UHFFFAOYSA-N.chk
#b3lyp/6-31+G(d) opt freq

gas opt

0 1
O    3.0047   -0.2319   -0.0000
C    1.7941    0.5274    0.0000
C    0.5956   -0.4236   -0.0000
C   -0.7006    0.3893    0.0000
C   -1.8991   -0.5617    0.0000
C   -3.1952    0.2513   -0.0000
H    3.8073    0.3075    0.0000
H    1.7593    1.1558    0.8900
H    1.7593    1.1558   -0.8900
H    0.6304   -1.0520   -0.8900
H    0.6304   -1.0520    0.8900
H   -0.7353    1.0177    0.8900
H   -0.7353    1.0177   -0.8900
H   -1.8643   -1.1900   -0.8900
H   -1.8643   -1.1900    0.8900
H   -3.2300    0.8796    0.8900
H   -3.2300    0.8796   -0.8900
H   -4.0491   -0.4263   -0.0000


