%nprocshared=4
%mem=100MW
%chk=ANJTVLIZGCUXLD-UHFFFAOYSA-N.chk
#b3lyp/6-31+G(d) opt freq

gas opt

0 1
O   -2.1097   -1.9763    0.3306
C   -1.8479   -0.8047    0.1098
N   -0.5985   -0.4588   -0.2862
C   -0.2596    0.8480   -0.3797
C   -1.2006    1.8182   -0.2394
C   -2.5214    1.4837    0.0809
C   -2.8437    0.1703    0.2624
C    1.1725    1.2875   -0.5872
C    1.8280    1.3997    0.7990
N    1.6263    0.1247    1.5040
C    2.2892   -0.9792    0.8021
C    1.7672   -1.1128   -0.6212
C    0.3109   -1.5469   -0.6479
C    1.9196    0.2086   -1.3796
H   -0.9275    2.8541   -0.3755
H   -3.2740    2.2521    0.1787
H   -3.8511   -0.1137    0.5285
H    1.2069    2.2459   -1.1051
H    2.8948    1.5938    0.6872
H    1.3630    2.2091    1.3618
H    1.9418    0.1864    2.4604
H    3.3626   -0.7919    0.7736
H    2.1031   -1.9086    1.3404
H    2.3613   -1.8672   -1.1371
H    0.1744   -2.3697    0.0538
H    0.0642   -1.8951   -1.6509
H    1.4868    0.1153   -2.3757
H    2.9747    0.4709   -1.4572


