%nprocshared=4
%mem=100MW
%chk=APSMUYYLXZULMS-UHFFFAOYSA-N.chk
#b3lyp/6-31+G(d) opt freq

gas opt

0 1
Br   -2.6836    0.1990   -0.0003
C   -0.8325   -0.1876   -0.0007
C    0.0667    0.8356    0.0001
C    1.4425    0.5516    0.0002
C    1.8735   -0.7989   -0.0005
C    0.9166   -1.8278   -0.0013
C   -0.4082   -1.5156    0.0039
C    3.2500   -1.0826   -0.0009
C    4.1483   -0.0603   -0.0005
C    3.7245    1.2675    0.0006
C    2.4001    1.5804    0.0006
H   -0.2763    1.8597    0.0003
H    1.2307   -2.8611   -0.0018
H   -1.1416   -2.3084    0.0033
H    3.5931   -2.1067   -0.0010
H    5.2055   -0.2812   -0.0008
H    4.4583    2.0600    0.0012
H    2.0865    2.6139    0.0011


