%nprocshared=4
%mem=100MW
%chk=APTGDJCKNMNFID-UHFFFAOYSA-N.chk
#b3lyp/6-31+G(d) opt freq

gas opt

0 1
S   -3.4126   -0.2323   -0.1122
O   -3.7245   -1.5420   -0.5668
O   -3.8514    0.9455   -0.7752
N   -3.9743   -0.1307    1.4423
C   -1.6547   -0.1365   -0.0390
S   -0.7164    1.3472   -0.1159
C    0.7828    0.4424    0.0248
S    2.4094    1.1459    0.0296
O    2.6539    1.4965   -1.3256
O    2.3725    2.1311    1.0529
C    3.4386   -0.2726    0.5290
C    2.9416   -1.4937   -0.2572
O    3.8859   -2.5580   -0.1247
C    1.5919   -1.9491    0.2744
C    0.5285   -0.8763    0.1256
C   -0.8359   -1.1736    0.0885
H   -4.4964   -0.8569    1.8178
H   -3.7811    0.6549    1.9774
H    4.4833   -0.0761    0.2881
H    3.3306   -0.4509    1.5989
H    2.8415   -1.2290   -1.3098
H    3.6379   -3.3649   -0.5965
H    1.2773   -2.8378   -0.2726
H    1.6940   -2.2024    1.3297
H   -1.2026   -2.1872    0.1558


