%nprocshared=4
%mem=100MW
%chk=AQIXEPGDORPWBJ-UHFFFAOYSA-N.chk
#b3lyp/6-31+G(d) opt freq

gas opt

0 1
O    0.0000    1.3621   -0.1984
C    0.0000   -0.0021    0.2270
C   -1.2492   -0.7037   -0.3097
C   -2.4953   -0.0820    0.3242
C    1.2492   -0.7037   -0.3097
C    2.4953   -0.0820    0.3242
H    0.0000    1.4747   -1.1588
H   -0.0000   -0.0430    1.3163
H   -1.2952   -0.5860   -1.3924
H   -1.2056   -1.7640   -0.0610
H   -3.3853   -0.5818   -0.0582
H   -2.4494   -0.1997    1.4068
H   -2.5390    0.9783    0.0755
H    1.2056   -1.7640   -0.0610
H    1.2952   -0.5860   -1.3924
H    2.4494   -0.1997    1.4068
H    3.3853   -0.5818   -0.0582
H    2.5390    0.9783    0.0755


