%nprocshared=4
%mem=100MW
%chk=ARSRBNBHOADGJU-UHFFFAOYSA-N.chk
#b3lyp/6-31+G(d) opt freq

gas opt

0 1
C   -0.0729    2.5600    0.5514
C   -0.4789    1.1359    0.2710
C    0.4461    0.1230    0.1091
C   -0.0271   -1.2707    0.0685
C   -1.3753   -1.5547   -0.1062
C   -1.8399   -2.9813   -0.2514
C   -2.3062   -0.5134   -0.0982
C   -1.8507    0.8591    0.1378
C   -2.8172    1.8811    0.2176
C   -4.1325    1.5853    0.0295
C   -4.5583    0.2883   -0.2393
C   -3.6790   -0.7466   -0.3137
C    0.9354   -2.3493    0.2861
C    2.2534   -2.0886    0.3624
C    2.7717   -0.7443    0.1411
C    1.8880    0.3368   -0.0943
C    2.4425    1.5395   -0.5274
C    3.8087    1.7195   -0.5449
C    4.6635    0.6935   -0.1674
C    4.1565   -0.5278    0.1621
H    0.0562    3.0932   -0.3905
H   -0.8473    3.0489    1.1425
H    0.8660    2.5679    1.1050
H   -2.0702   -3.3903    0.7323
H   -2.7332   -3.0107   -0.8753
H   -1.0524   -3.5744   -0.7162
H   -2.5533    2.9062    0.4270
H   -4.8617    2.3793    0.0937
H   -5.6093    0.0970   -0.3955
H   -4.0594   -1.7306   -0.5437
H    0.6100   -3.3722    0.3946
H    2.9384   -2.8913    0.5879
H    1.8335    2.3298   -0.9394
H    4.2178    2.6689   -0.8588
H    5.7280    0.8618   -0.1353
H    4.8218   -1.3319    0.4434


