%nprocshared=4
%mem=100MW
%chk=BBEAQIROQSPTKN-UHFFFAOYSA-N.chk
#b3lyp/6-31+G(d) opt freq

gas opt

0 1
C    0.7360   -0.0001    0.0013
C   -0.7360   -0.0001    0.0009
C   -1.4190    1.2139   -0.0011
C   -0.6578    2.4733   -0.0026
C    0.6578    2.4733   -0.0024
C    1.4190    1.2139   -0.0005
C    2.8130    1.2124    0.0004
C    3.5048    0.0001    0.0024
C    2.8131   -1.2122    0.0035
C    1.4192   -1.2140   -0.0025
C    0.6578   -2.4733   -0.0010
C   -0.6578   -2.4733   -0.0062
C   -1.4192   -1.2140    0.0032
C   -2.8131   -1.2121   -0.0016
C   -3.5047    0.0001    0.0078
C   -2.8130    1.2123   -0.0012
H   -1.1884    3.4140   -0.0043
H    1.1884    3.4140   -0.0039
H    3.3559    2.1460   -0.0008
H    4.5848    0.0002    0.0027
H    3.3561   -2.1458    0.0047
H    1.1883   -3.4140    0.0039
H   -1.1884   -3.4140   -0.0049
H   -3.3561   -2.1456   -0.0130
H   -4.5847    0.0002    0.0041
H   -3.3558    2.1460    0.0065


