%nprocshared=4
%mem=100MW
%chk=BFCFYVKQTRLZHA-UHFFFAOYSA-N.chk
#b3lyp/6-31+G(d) opt freq

gas opt

0 1
Cl   -0.8388   -1.9524   -0.0007
C    0.4076   -0.7440   -0.0009
C    0.0705    0.5980   -0.0005
N   -1.3530    1.0037    0.0002
O   -1.6496    2.1851    0.0006
O   -2.2278    0.1562    0.0003
C    1.0631    1.5595   -0.0002
C    2.3928    1.1807   -0.0008
C    2.7302   -0.1597   -0.0013
C    1.7381   -1.1224    0.0042
H    0.8001    2.6070    0.0002
H    3.1683    1.9325   -0.0013
H    3.7690   -0.4549   -0.0021
H    2.0018   -2.1697    0.0038


