%nprocshared=4
%mem=100MW
%chk=BFPYWIDHMRZLRN-UHFFFAOYSA-N.chk
#b3lyp/6-31+G(d) opt freq

gas opt

0 1
O    6.2104   -0.3113   -0.0508
C    4.8522   -0.3445   -0.0058
C    4.1325    0.8336    0.0924
C    2.7441    0.8154    0.1433
C    2.0880   -0.4019    0.0874
C    2.8048   -1.5798   -0.0152
C    4.1852   -1.5590   -0.0587
C    0.5874   -0.4452    0.1558
C    0.0560    0.8668   -0.4334
C   -1.4067    0.7820   -0.7001
C   -2.1072   -0.3376    0.0946
C   -2.0594   -0.0844    1.6054
C   -3.5714   -0.1098   -0.3356
O   -3.7947   -0.6482   -1.6339
C   -4.4808   -0.7034    0.6516
C   -5.2083   -1.1782    1.4413
C   -3.7112    1.4333   -0.3525
C   -2.2675    2.0058   -0.3542
C   -1.5503   -1.6983   -0.2303
C   -0.0476   -1.6232   -0.5562
C    0.5312    1.9993    0.4663
C    2.0420    2.1422    0.2607
H    6.6339   -0.3566    0.8173
H    4.6548    1.7783    0.1284
H    2.2908   -2.5287   -0.0579
H    4.7391   -2.4828   -0.1307
H    0.3423   -0.4887    1.2134
H    0.5669    1.0014   -1.4114
H   -1.5493    0.5806   -1.7847
H   -2.6662    0.7882    1.8470
H   -2.4494   -0.9553    2.1322
H   -1.0285    0.0939    1.9114
H   -4.6990   -0.5341   -1.9568
H   -5.8589   -1.6029    2.1476
H   -4.2408    1.7516   -1.2504
H   -4.2460    1.7712    0.5352
H   -2.0049    2.4187    0.6154
H   -2.1649    2.7705   -1.1284
H   -1.7049   -2.3750    0.6211
H   -2.0818   -2.1241   -1.0920
H    0.0886   -1.5168   -1.6370
H    0.4350   -2.5522   -0.2377
H    0.0384    2.9306    0.1874
H    0.3254    1.7671    1.5097
H    2.4621    2.6939    1.1017
H    2.2163    2.7137   -0.6534


