%nprocshared=4
%mem=100MW
%chk=BMLIZLVNXIYGCK-UHFFFAOYSA-N.chk
#b3lyp/6-31+G(d) opt freq

gas opt

0 1
Cl   -4.4111   -0.2937    0.1228
C   -2.7054    0.0074    0.0063
C   -2.2220    1.2984    0.1278
C   -0.8655    1.5407    0.0350
C    0.0136    0.4875   -0.1800
N    1.3891    0.7304   -0.2740
C    2.2672   -0.2602   -0.0207
O    1.8718   -1.4009    0.1236
N    3.5835    0.0136    0.0727
C    4.5529   -1.0792    0.1839
C    4.0450    1.4040    0.0629
C   -0.4740   -0.8070   -0.3012
C   -1.8309   -1.0446   -0.2024
H   -2.9061    2.1171    0.2950
H   -0.4888    2.5485    0.1292
H    1.7103    1.6116   -0.5215
H    4.8730   -1.3838   -0.8125
H    5.4173   -0.7413    0.7557
H    4.0898   -1.9254    0.6913
H    3.1972    2.0670   -0.1094
H    4.5028    1.6416    1.0231
H    4.7784    1.5378   -0.7323
H    0.2077   -1.6278   -0.4684
H   -2.2107   -2.0512   -0.2965


