%nprocshared=4
%mem=100MW
%chk=BNUHAJGCKIQFGE-UHFFFAOYSA-N.chk
#b3lyp/6-31+G(d) opt freq

gas opt

0 1
O    3.2145   -0.8515    0.0008
N    2.4975    0.1331    0.0007
O    2.9917    1.2463   -0.0043
C    1.0257   -0.0232    0.0004
C    0.4659   -1.2875    0.0003
C   -0.9075   -1.4360   -0.0004
C   -1.7252   -0.3153   -0.0006
O   -3.0766   -0.4589   -0.0008
C   -3.8562    0.7387   -0.0009
C   -1.1611    0.9521    0.0000
C    0.2129    1.0953    0.0060
H    1.1030   -2.1596    0.0004
H   -1.3443   -2.4238   -0.0013
H   -3.6236    1.3236   -0.8909
H   -4.9157    0.4826   -0.0011
H   -3.6240    1.3235    0.8891
H   -1.7956    1.8261   -0.0004
H    0.6526    2.0818    0.0065


