%nprocshared=4
%mem=100MW
%chk=BOCJQSFSGAZAPQ-UHFFFAOYSA-N.chk
#b3lyp/6-31+G(d) opt freq

gas opt

0 1
Cl   -2.9062   -1.8212   -0.0531
C   -2.3175   -0.1882   -0.0753
C   -0.9548    0.0650    0.0554
C    0.0057   -1.0477    0.2137
O   -0.3878   -2.1662    0.4796
C    1.4515   -0.7836    0.0441
C    1.9198    0.5437    0.0255
C    0.9613    1.6605    0.1753
O    1.3588    2.7846    0.4093
C   -0.4869    1.3924    0.0362
C   -1.3890    2.4397   -0.1142
C   -2.7415    2.1711   -0.2438
C   -3.2023    0.8682   -0.2289
C    3.2783    0.7935   -0.1344
C    4.1608   -0.2645   -0.2745
C    3.7008   -1.5680   -0.2562
C    2.3511   -1.8342   -0.0974
H   -1.0360    3.4603   -0.1296
H   -3.4410    2.9857   -0.3607
H   -4.2594    0.6720   -0.3310
H    3.6440    1.8096   -0.1496
H    5.2158   -0.0698   -0.3993
H    4.3990   -2.3846   -0.3667
H    1.9983   -2.8548   -0.0833


