%nprocshared=4
%mem=100MW
%chk=BOJWTAQWPVBIPG-UHFFFAOYSA-N.chk
#b3lyp/6-31+G(d) opt freq

gas opt

0 1
F   -2.3825   -1.7311   -0.0008
C   -1.1357   -1.2110   -0.0009
C   -0.9611    0.1649   -0.0006
N   -2.1406    1.0592   -0.0000
O   -1.9886    2.2677    0.0003
O   -3.2632    0.5866    0.0002
C    0.3083    0.7010   -0.0003
C    1.4208   -0.1444   -0.0008
C    2.7830    0.4238   -0.0001
O    2.9385    1.6287    0.0011
O    3.8539   -0.3937   -0.0006
C    1.2390   -1.5294   -0.0017
C   -0.0354   -2.0546    0.0043
H    0.4431    1.7725   -0.0000
H    4.7257    0.0249   -0.0000
H    2.0954   -2.1875   -0.0024
H   -0.1772   -3.1252    0.0036


