%nprocshared=4
%mem=100MW
%chk=BRBKOPJOKNSWSG-UHFFFAOYSA-N.chk
#b3lyp/6-31+G(d) opt freq

gas opt

0 1
S   -0.8859    0.6408   -0.0025
O   -1.1575    1.2553   -1.2547
O   -1.1574    1.2651    1.2448
N   -1.7122   -0.7943    0.0032
C   -3.0157   -0.7958    0.0032
N   -3.7044    0.3941   -0.0015
N   -3.7017   -1.9872    0.0079
C    0.8329    0.2530   -0.0010
C    1.5058    0.0964   -1.1989
C    2.8530   -0.2076   -1.2013
C    3.5320   -0.3561    0.0013
N    4.8946   -0.6631    0.0025
C    2.8530   -0.1981    1.2029
C    1.5071    0.1114    1.1980
H   -3.2204    1.2347   -0.0048
H   -4.6744    0.3930   -0.0015
H   -3.2157   -2.8266    0.0112
H   -4.6717   -1.9883    0.0079
H    0.9772    0.2117   -2.1336
H    3.3779   -0.3301   -2.1372
H    5.3678   -0.7728   -0.8371
H    5.3678   -0.7665    0.8430
H    3.3780   -0.3129    2.1397
H    0.9787    0.2347    2.1318


