%nprocshared=4
%mem=100MW
%chk=BRPOVUNVTUCYNN-UHFFFAOYSA-N.chk
#b3lyp/6-31+G(d) opt freq

gas opt

0 1
F   -2.0156   -3.1607   -0.1888
C   -1.1867   -2.0948   -0.1457
C   -1.7170   -0.8019   -0.1207
N   -3.0978   -0.6211   -0.1410
C   -3.4554    0.7613    0.2279
C   -3.9236    1.6069   -0.9582
C   -2.7745    1.7669   -1.9556
C   -4.6087    0.1821    1.0591
N   -5.8522   -0.0203    0.3036
C   -3.7068   -1.0581    1.1292
C   -0.8803    0.3012   -0.0755
C    0.4981    0.1229   -0.0552
N    1.3439    1.2112   -0.0107
C    0.7586    2.5540    0.0152
C    0.9736    3.3942    1.2756
C    1.7197    3.7442   -0.0135
C    2.6780    1.0923    0.0104
C    3.3065   -0.1358   -0.0115
C    4.7731   -0.2245    0.0133
O    5.4428    0.7893    0.0534
O    5.3759   -1.4301   -0.0085
C    2.4839   -1.3560   -0.0596
O    2.9920   -2.4638   -0.0801
C    1.0220   -1.1824   -0.0811
C    0.1654   -2.2857   -0.1209
H   -2.6949    1.2612    0.8277
H   -4.7632    1.1132   -1.4474
H   -4.2361    2.5890   -0.6033
H   -1.9199    2.2226   -1.4553
H   -2.4899    0.7883   -2.3420
H   -3.0950    2.4040   -2.7799
H   -4.7629    0.6802    2.0164
H   -6.5761   -0.4014    0.8942
H   -6.1550    0.8384   -0.1312
H   -4.2534   -1.9977    1.0481
H   -3.0138   -1.0441    1.9704
H   -1.2978    1.2971   -0.0564
H   -0.1927    2.6623   -0.5056
H    0.1639    4.0555    1.5838
H    1.5505    2.9479    2.0856
H    2.7874    3.5281   -0.0516
H    1.4007    4.6357   -0.5534
H    3.2815    1.9873    0.0453
H    6.3427   -1.4379    0.0092
H    0.5715   -3.2863   -0.1362


