%nprocshared=4
%mem=100MW
%chk=BTJIUGUIPKRLHP-UHFFFAOYSA-N.chk
#b3lyp/6-31+G(d) opt freq

gas opt

0 1
O    2.7224   -1.0548    0.0097
N    2.1134    0.0000    0.0060
O    2.7224    1.0548    0.0043
C    0.6333    0.0000   -0.0025
C   -0.0568   -1.1981   -0.0064
C   -1.4382   -1.2008   -0.0148
C   -2.1330   -0.0000   -0.0190
O   -3.4920   -0.0000   -0.0269
C   -1.4382    1.2008   -0.0147
C   -0.0568    1.1981   -0.0010
H    0.4846   -2.1326   -0.0031
H   -1.9768   -2.1369   -0.0185
H   -3.8904    0.0001    0.8542
H   -1.9768    2.1369   -0.0183
H    0.4845    2.1326    0.0023


