%nprocshared=4
%mem=100MW
%chk=BUNFNRVLMKHKIT-UHFFFAOYSA-N.chk
#b3lyp/6-31+G(d) opt freq

gas opt

0 1
O   -2.3300    2.1555    0.2503
N   -1.2532    1.6283    0.0355
O   -0.2596    2.3149   -0.1222
C   -1.1511    0.1530   -0.0277
C    0.0740   -0.4486   -0.2852
N    1.2135    0.3385   -0.4852
C    2.3830   -0.0114    0.0859
O    2.4718   -1.0566    0.6948
C    3.5805    0.8958   -0.0323
C    0.1658   -1.8329   -0.3432
C   -0.9608   -2.6071   -0.1449
C   -2.1790   -2.0052    0.1108
C   -2.2726   -0.6268    0.1749
H    1.1616    1.1361   -1.0348
H    3.3489    1.8631    0.4135
H    4.4275    0.4492    0.4885
H    3.8313    1.0313   -1.0844
H    1.1169   -2.3037   -0.5436
H   -0.8901   -3.6839   -0.1899
H   -3.0585   -2.6127    0.2648
H   -3.2255   -0.1595    0.3751


