%nprocshared=4
%mem=100MW
%chk=BXWNKGSJHAJOGX-UHFFFAOYSA-N.chk
#b3lyp/6-31+G(d) opt freq

gas opt

0 1
O    9.8356   -0.3735   -0.0000
C    8.6700    0.4532    0.0000
C    7.4195   -0.4283   -0.0000
C    6.1715    0.4568    0.0000
C    4.9210   -0.4247   -0.0000
C    3.6730    0.4604    0.0000
C    2.4225   -0.4211   -0.0000
C    1.1746    0.4640    0.0000
C   -0.0759   -0.4175   -0.0000
C   -1.3239    0.4676   -0.0000
C   -2.5744   -0.4139    0.0000
C   -3.8224    0.4713   -0.0000
C   -5.0729   -0.4103    0.0000
C   -6.3209    0.4749   -0.0000
C   -7.5714   -0.4067    0.0000
C   -8.8193    0.4785   -0.0000
C  -10.0699   -0.4031    0.0000
H   10.6675    0.1195    0.0000
H    8.6709    1.0825    0.8900
H    8.6709    1.0825   -0.8900
H    7.4186   -1.0576   -0.8900
H    7.4186   -1.0576    0.8900
H    6.1724    1.0861    0.8900
H    6.1724    1.0861   -0.8900
H    4.9201   -1.0540   -0.8900
H    4.9201   -1.0540    0.8900
H    3.6740    1.0897    0.8900
H    3.6740    1.0897   -0.8900
H    2.4216   -1.0504   -0.8900
H    2.4216   -1.0504    0.8900
H    1.1755    1.0933    0.8900
H    1.1755    1.0933   -0.8900
H   -0.0769   -1.0468   -0.8900
H   -0.0769   -1.0468    0.8900
H   -1.3230    1.0970    0.8900
H   -1.3230    1.0970   -0.8900
H   -2.5753   -1.0432   -0.8900
H   -2.5753   -1.0432    0.8900
H   -3.8215    1.1006    0.8900
H   -3.8215    1.1006   -0.8900
H   -5.0738   -1.0396   -0.8900
H   -5.0738   -1.0396    0.8900
H   -6.3200    1.1042    0.8900
H   -6.3200    1.1042   -0.8900
H   -7.5723   -1.0360   -0.8900
H   -7.5723   -1.0360    0.8900
H   -8.8184    1.1078    0.8900
H   -8.8184    1.1078   -0.8900
H  -10.9589    0.2275   -0.0000
H  -10.0708   -1.0324   -0.8900
H  -10.0708   -1.0324    0.8900


