%nprocshared=4
%mem=100MW
%chk=BZLVMXJERCGZMT-UHFFFAOYSA-N.chk
#b3lyp/6-31+G(d) opt freq

gas opt

0 1
O    0.7636    0.0000   -0.8191
C   -0.4078   -0.0000   -0.0006
C   -0.4127    1.2492    0.8827
C   -1.6521    0.0000   -0.8909
C   -0.4127   -1.2492    0.8827
C    1.9878    0.0000   -0.0820
H   -0.4092    2.1392    0.2534
H   -1.3061    1.2492    1.5071
H    0.4738    1.2492    1.5170
H   -1.6486   -0.8900   -1.5202
H   -2.5455    0.0000   -0.2665
H   -1.6486    0.8900   -1.5202
H    0.4738   -1.2492    1.5170
H   -1.3061   -1.2492    1.5071
H   -0.4092   -2.1392    0.2534
H    2.0340    0.8900    0.5457
H    2.0340   -0.8900    0.5457
H    2.8292    0.0000   -0.7749


