%nprocshared=4
%mem=100MW
%chk=BZTYNSQSZHARAZ-UHFFFAOYSA-N.chk
#b3lyp/6-31+G(d) opt freq

gas opt

0 1
Cl   -0.5465   -2.3144   -0.3335
C   -1.3810   -0.8077   -0.1162
C   -0.6584    0.3732    0.0541
C    0.8250    0.3453    0.0501
C    1.5386    1.2308   -0.7552
C    2.9182    1.2013   -0.7551
C    3.5934    0.2937    0.0430
Cl    5.3291    0.2615    0.0387
C    2.8889   -0.5881    0.8448
C    1.5093   -0.5625    0.8560
C   -1.3344    1.5789    0.2275
C   -2.7144    1.5998    0.2301
C   -3.4276    0.4255    0.0607
Cl   -5.1633    0.4594    0.0650
C   -2.7616   -0.7750   -0.1173
H    1.0128    1.9388   -1.3787
H    3.4722    1.8872   -1.3789
H    3.4201   -1.2945    1.4654
H    0.9606   -1.2508    1.4818
H   -0.7794    2.4959    0.3601
H   -3.2390    2.5342    0.3648
H   -3.3225   -1.6884   -0.2490


