%nprocshared=4
%mem=100MW
%chk=CDAWCLOXVUBKRW-UHFFFAOYSA-N.chk
#b3lyp/6-31+G(d) opt freq

gas opt

0 1
O    1.6867   -1.3643   -0.0335
C    0.5069   -0.6878   -0.0175
C    0.5010    0.7057   -0.0055
N    1.7089    1.4127   -0.0099
C   -0.7051    1.3902    0.0103
C   -1.8971    0.6895    0.0142
C   -1.8903   -0.6925    0.0023
C   -0.6912   -1.3819   -0.0188
H    2.0356   -1.5675    0.8452
H    2.5518    0.9327   -0.0213
H    1.7033    2.3826   -0.0016
H   -0.7133    2.4701    0.0200
H   -2.8358    1.2235    0.0269
H   -2.8237   -1.2357    0.0054
H   -0.6894   -2.4618   -0.0280


