%nprocshared=4
%mem=100MW
%chk=CDOZDBSBBXSXLB-UHFFFAOYSA-N.chk
#b3lyp/6-31+G(d) opt freq

gas opt

0 1
N   -3.1778   -0.8059    0.0221
C   -1.7758   -0.5462   -0.3313
C   -0.9426   -0.4209    0.9458
N    0.4329   -0.0563    0.5978
C    0.7146    1.2926    0.3950
C    1.7862    1.7102   -0.3886
S    2.8464    0.5364   -1.1613
C    2.5188   -0.9521   -0.2805
C    1.3700   -1.0818    0.4979
C    1.1420   -2.2699    1.1840
C    2.0438   -3.3134    1.0927
C    3.1806   -3.1828    0.3184
C    3.4217   -2.0035   -0.3624
C    2.0278    3.0657   -0.5668
C    1.2079    4.0037    0.0334
C    0.1444    3.5920    0.8135
C   -0.1032    2.2443    0.9947
C   -1.2406   -1.7028   -1.1779
C   -3.6910    0.2263    0.9327
C   -3.6118    1.5935    0.2505
C   -4.0137   -0.9089   -1.1815
C   -5.4106   -1.3966   -0.7920
H   -1.7103    0.3812   -0.9003
H   -1.3721    0.3500    1.5856
H   -0.9431   -1.3739    1.4749
H    0.2557   -2.3775    1.7918
H    1.8595   -4.2330    1.6282
H    3.8833   -3.9999    0.2480
H    4.3112   -1.9032   -0.9667
H    2.8591    3.3887   -1.1759
H    1.3990    5.0573   -0.1072
H   -0.4951    4.3251    1.2825
H   -0.9361    1.9286    1.6056
H   -1.8341   -1.7921   -2.0878
H   -0.2003   -1.5101   -1.4402
H   -1.3061   -2.6302   -0.6090
H   -4.7282    0.0055    1.1846
H   -3.0909    0.2390    1.8426
H   -3.9127    2.3690    0.9548
H   -2.5886    1.7773   -0.0771
H   -4.2777    1.6080   -0.6124
H   -4.0896    0.0695   -1.6559
H   -3.5628   -1.6162   -1.8775
H   -5.9983   -1.5727   -1.6929
H   -5.3268   -2.3242   -0.2258
H   -5.9019   -0.6404   -0.1797


