%nprocshared=4
%mem=100MW
%chk=CDVNZMKTJIBBBV-UHFFFAOYSA-N.chk
#b3lyp/6-31+G(d) opt freq

gas opt

0 1
O    0.7763   -3.5096    0.1296
N    1.3454   -2.4391    0.0126
O    2.5573   -2.4032   -0.1036
C    0.5636   -1.1823    0.0055
C    1.2154    0.0337    0.0080
C    2.7216    0.0832    0.0181
C    0.4765    1.2182    0.0008
C    1.1675    2.5238    0.0030
O    2.3764    2.5714   -0.1057
O    0.4570    3.6617    0.1257
C   -0.9189    1.1631   -0.0089
C   -1.5577   -0.0593   -0.0114
N   -3.0366   -0.1196   -0.0217
O   -3.6880    0.9096   -0.0281
O   -3.6021   -1.1983   -0.0239
C   -0.8190   -1.2295   -0.0095
H    3.0920    0.0807   -1.0070
H    3.0519    0.9918    0.5215
H    3.1102   -0.7870    0.5470
H    0.9533    4.4917    0.1218
H   -1.4965    2.0757   -0.0142
H   -1.3242   -2.1841   -0.0115


