%nprocshared=4
%mem=100MW
%chk=CERQOIWHTDAKMF-UHFFFAOYSA-N.chk
#b3lyp/6-31+G(d) opt freq

gas opt

0 1
O    1.3165   -1.1126    0.0011
C    0.6971   -0.0669    0.0018
O    1.3581    1.1079   -0.0017
C   -0.7723   -0.0832    0.0003
C   -1.4249   -1.2431   -0.0018
C   -1.5402    1.2134    0.0011
H    2.3243    1.0680   -0.0047
H   -0.8745   -2.1723   -0.0024
H   -2.5048   -1.2551   -0.0029
H   -1.7243    1.5273   -1.0264
H   -2.4916    1.0719    0.5138
H   -0.9601    1.9789    0.5165


