%nprocshared=4
%mem=100MW
%chk=CFBYEGUGFPZCNF-UHFFFAOYSA-N.chk
#b3lyp/6-31+G(d) opt freq

gas opt

0 1
O   -2.7521   -0.7002   -0.0022
N   -1.8032    0.0634   -0.0018
O   -1.9902    1.2670    0.0031
C   -0.4231   -0.4711   -0.0012
C    0.6583    0.3983   -0.0008
O    0.4517    1.7415   -0.0004
C    1.6115    2.5763   -0.0000
C    1.9505   -0.1058   -0.0002
C    2.1579   -1.4718   -0.0001
C    1.0788   -2.3360   -0.0010
C   -0.2105   -1.8359    0.0047
H    1.3060    3.6226    0.0002
H    2.2064    2.3712    0.8900
H    2.2067    2.3717   -0.8899
H    2.7939    0.5689   -0.0003
H    3.1639   -1.8648    0.0003
H    1.2430   -3.4034   -0.0017
H   -1.0518   -2.5130    0.0043


