%nprocshared=4
%mem=100MW
%chk=CIWBSHSKHKDKBQ-JLAZNSOCSA-N.chk
#b3lyp/6-31+G(d) opt freq

gas opt

0 1
O    1.9661   -2.1915   -0.1641
C    1.3363   -1.1907    0.1222
C    1.8138    0.1763   -0.0514
C    0.8585    1.0283    0.3686
O    0.9230    2.3776    0.3684
C   -0.2994    0.1795    0.8395
H   -0.4949    0.3657    1.8955
C   -1.5484    0.4888    0.0117
H   -1.8592    1.5176    0.1936
O   -1.2543    0.3183   -1.3763
C   -2.6760   -0.4635    0.4148
O   -3.8748   -0.1004   -0.2730
O    0.0935   -1.1821    0.6404
O    3.0284    0.5335   -0.5557
H    1.7548    2.7315    0.0250
H   -0.9704   -0.5757   -1.6112
H   -2.4009   -1.4847    0.1511
H   -2.8401   -0.3977    1.4904
H   -4.6334   -0.6630   -0.0651
H    3.5861   -0.2158   -0.8061


