%nprocshared=4
%mem=100MW
%chk=CIWBSHSKHKDKBQ-UHFFFAOYSA-N.chk
#b3lyp/6-31+G(d) opt freq

gas opt

0 1
O    1.9647   -2.1920   -0.1635
C    1.3355   -1.1908    0.1226
C    1.8136    0.1759   -0.0515
C    0.8588    1.0286    0.3685
O    0.9240    2.3777    0.3679
C   -0.2993    0.1805    0.8398
C   -1.5480    0.4891    0.0114
O   -1.2535    0.3171   -1.3763
C   -2.6760   -0.4626    0.4151
O   -3.8745   -0.1000   -0.2735
O    0.0928   -1.1814    0.6411
O    3.0283    0.5324   -0.5562
H    1.7559    2.7312    0.0242
H   -0.4952    0.3678    1.8956
H   -1.8588    1.5181    0.1920
H   -0.9697   -0.5772   -1.6103
H   -2.4009   -1.4841    0.1525
H   -2.8404   -0.3956    1.4905
H   -4.6332   -0.6623   -0.0653
H    3.5856   -0.2172   -0.8065


