%nprocshared=4
%mem=100MW
%chk=CMSMOCZEIVJLDB-UHFFFAOYSA-N.chk
#b3lyp/6-31+G(d) opt freq

gas opt

0 1
Cl   -0.9753   -3.9642    0.0372
C   -0.7596   -2.2482    0.5468
C    0.3658   -1.6110   -0.2707
N    0.5415   -0.2129    0.1444
C    1.8178    0.3252   -0.3450
C    2.9053    0.0943    0.7061
Cl    4.4717    0.7547    0.1054
P   -0.7499    0.7358   -0.3699
O   -0.8502    0.6943   -1.8459
O   -2.1295    0.1995    0.2938
C   -3.2856    1.0558    0.3150
C   -2.8791    2.4141    0.8895
C   -1.8072    3.0649    0.0177
N   -0.5367    2.3312    0.1493
H   -1.6865   -1.6999    0.3781
H   -0.5042   -2.2130    1.6058
H    1.2927   -2.1593   -0.1020
H    0.1104   -1.6462   -1.3298
H    2.0940   -0.1799   -1.2706
H    1.7138    1.3941   -0.5315
H    2.6291    0.5994    1.6317
H    3.0093   -0.9746    0.8926
H   -3.6630    1.1859   -0.6992
H   -4.0589    0.6107    0.9411
H   -3.7533    3.0639    0.9297
H   -2.4878    2.2758    1.8974
H   -2.1278    3.0470   -1.0240
H   -1.6625    4.0983    0.3328
H   -0.2002    2.3585    1.1001


