%nprocshared=4
%mem=100MW
%chk=CQRYARSYNCAZFO-UHFFFAOYSA-N.chk
#b3lyp/6-31+G(d) opt freq

gas opt

0 1
O    2.7396    0.6976    0.0016
C    1.8834   -0.4464   -0.0119
C    0.4449    0.0027   -0.0077
C   -0.5760   -0.9370   -0.0190
O   -0.2800   -2.2633   -0.0339
C   -1.8990   -0.5204   -0.0147
C   -2.1973    0.8286    0.0009
C   -1.1784    1.7629    0.0121
C    0.1415    1.3501    0.0131
H    3.6825    0.4833   -0.0002
H    2.0777   -1.0350   -0.9085
H    2.0765   -1.0552    0.8714
H   -0.1949   -2.6571    0.8452
H   -2.6954   -1.2499   -0.0238
H   -3.2272    1.1535    0.0039
H   -1.4136    2.8169    0.0243
H    0.9357    2.0819    0.0223


