%nprocshared=4
%mem=100MW
%chk=CSHWQDPOILHKBI-UHFFFAOYSA-N.chk
#b3lyp/6-31+G(d) opt freq

gas opt

0 1
C   -1.4345   -0.0003    0.0021
C   -0.7375   -1.2286    0.0023
C    0.7375   -1.2286    0.0015
C    1.4345   -0.0003    0.0005
C    0.7374    1.2280    0.0002
C   -0.7374    1.2280    0.0016
C   -1.4525    2.4156    0.0009
C   -2.8419    2.4002    0.0017
C   -3.5362    1.2263    0.0031
C   -2.8488    0.0001   -0.0036
C   -3.5366   -1.2258   -0.0018
C   -2.8426   -2.3998   -0.0080
C   -1.4532   -2.4158    0.0029
C    1.4525    2.4156   -0.0013
C    2.8419    2.4002   -0.0025
C    3.5362    1.2263   -0.0024
C    2.8488    0.0001   -0.0008
C    3.5366   -1.2258    0.0003
C    2.8426   -2.3998    0.0022
C    1.4532   -2.4158    0.0013
H   -0.9264    3.3588    0.0001
H   -3.3822    3.3353    0.0015
H   -4.6161    1.2388    0.0037
H   -4.6165   -1.2380    0.0048
H   -3.3831   -3.3347   -0.0061
H   -0.9275   -3.3592   -0.0026
H    0.9264    3.3588   -0.0018
H    3.3822    3.3353   -0.0041
H    4.6161    1.2388   -0.0034
H    4.6166   -1.2379   -0.0006
H    3.3832   -3.3347    0.0031
H    0.9275   -3.3592    0.0028


