%nprocshared=4
%mem=100MW
%chk=CULUWZNBISUWAS-UHFFFAOYSA-N.chk
#b3lyp/6-31+G(d) opt freq

gas opt

0 1
O    2.0471    2.0128    0.4737
N    3.1242    1.5959    0.0871
O    3.9698    2.3746   -0.3154
C    3.4079    0.1432    0.1122
N    2.5595   -0.8171    0.5385
C    1.2041   -0.6127    1.0555
C    0.2328   -0.5441   -0.0946
O    0.6333   -0.6551   -1.2340
N   -1.0810   -0.3595    0.1429
C   -2.0252   -0.2928   -0.9752
C   -3.4195   -0.0825   -0.4434
C   -3.9033    1.1993   -0.2602
C   -5.1823    1.3922    0.2277
C   -5.9775    0.3032    0.5320
C   -5.4940   -0.9787    0.3479
C   -4.2166   -1.1715   -0.1440
C    3.2024   -2.0172    0.3968
C    4.4206   -1.7492   -0.1108
N    4.5171   -0.4220   -0.2791
H    0.9355   -1.4427    1.7090
H    1.1669    0.3198    1.6186
H   -1.4013   -0.2707    1.0542
H   -1.7566    0.5372   -1.6286
H   -1.9880   -1.2253   -1.5383
H   -3.2820    2.0502   -0.4979
H   -5.5600    2.3937    0.3715
H   -6.9764    0.4539    0.9138
H   -6.1151   -1.8295    0.5860
H   -3.8388   -2.1730   -0.2878
H    2.8085   -2.9918    0.6448
H    5.1845   -2.4758   -0.3449


