%nprocshared=4
%mem=100MW
%chk=CWRYPZZKDGJXCA-UHFFFAOYSA-N.chk
#b3lyp/6-31+G(d) opt freq

gas opt

0 1
C    0.0000    0.1468    0.0025
C   -0.0000   -1.2596    0.0027
C    1.2420   -1.9154    0.0006
C    2.3822   -1.1651   -0.0021
C    2.3574    0.2315   -0.0023
C    1.1706    0.8984    0.0002
C    0.7722    2.3542    0.0003
C   -0.7722    2.3542    0.0022
C   -1.1706    0.8984   -0.0014
C   -2.3574    0.2315   -0.0022
C   -2.3822   -1.1651   -0.0046
C   -1.2420   -1.9154    0.0045
H    1.2939   -2.9942    0.0014
H    3.3374   -1.6691   -0.0038
H    3.2847    0.7852   -0.0044
H    1.1511    2.8494    0.8943
H    1.1488    2.8490   -0.8949
H   -1.1488    2.8494    0.8972
H   -1.1510    2.8490   -0.8920
H   -3.2847    0.7852   -0.0006
H   -3.3374   -1.6690   -0.0043
H   -1.2940   -2.9941    0.0024


