%nprocshared=4
%mem=100MW
%chk=CXOFVDLJLONNDW-UHFFFAOYSA-N.chk
#b3lyp/6-31+G(d) opt freq

gas opt

0 1
O   -0.0017   -0.6765   -2.4499
C   -0.0000   -1.1732   -1.3440
C   -0.0002   -0.4462   -0.0138
C    1.2383    0.4007    0.1276
C    2.0067    0.3156    1.2735
C    3.1426    1.0926    1.4033
C    3.5104    1.9543    0.3869
C    2.7425    2.0387   -0.7594
C    1.6089    1.2586   -0.8910
C   -1.2387    0.4006    0.1275
C   -1.6035    1.2663   -0.8866
C   -2.7396    2.0430   -0.7570
C   -3.5111    1.9538    0.3865
C   -3.1468    1.0875    1.4002
C   -2.0131    0.3075    1.2687
N    0.0018   -1.5366    0.9767
C    0.0028   -2.6882    0.2812
O    0.0041   -3.7888    0.7968
N   -0.0037   -2.4865   -1.0414
H    1.7193   -0.3576    2.0676
H    3.7426    1.0266    2.2989
H    4.3975    2.5618    0.4886
H    3.0297    2.7122   -1.5534
H    1.0090    1.3246   -1.7866
H   -1.0007    1.3360   -1.7801
H   -3.0242    2.7199   -1.5490
H   -4.3983    2.5612    0.4881
H   -3.7494    1.0180    2.2938
H   -1.7285   -0.3694    2.0607
H    0.0025   -1.4426    1.9421
H   -0.0045   -3.1976   -1.7011


