%nprocshared=4
%mem=100MW
%chk=CZIHNRWJTSTCEX-UHFFFAOYSA-N.chk
#b3lyp/6-31+G(d) opt freq

gas opt

0 1
O   -3.5158    1.3371   -0.6252
C   -4.0903    0.3764   -0.1582
N   -3.3815   -0.6539    0.3445
C   -1.9871   -0.6597    0.2408
C   -1.2777    0.5327    0.3305
C    0.0956    0.5259    0.2282
C    0.7815   -0.6712    0.0349
C    2.2381   -0.3989   -0.0398
C    2.4628    0.9676    0.1067
C    3.7464    1.4688    0.0714
C    4.8193    0.6138   -0.1107
C    4.6063   -0.7448   -0.2576
C    3.3252   -1.2555   -0.2223
C    1.1200    1.6328    0.2849
C    0.0650   -1.8666   -0.0554
C   -1.3087   -1.8579    0.0538
C   -5.5966    0.3375   -0.1343
H   -3.8387   -1.3913    0.7781
H   -1.8036    1.4641    0.4799
H    3.9150    2.5295    0.1855
H    5.8244    1.0081   -0.1385
H    5.4462   -1.4087   -0.3999
H    3.1632   -2.3171   -0.3372
H    0.9455    2.3472   -0.5196
H    1.0757    2.1360    1.2507
H    0.5884   -2.7994   -0.2051
H   -1.8603   -2.7838   -0.0164
H   -5.9629   -0.1197   -1.0535
H   -5.9314   -0.2488    0.7215
H   -5.9851    1.3527   -0.0536


