%nprocshared=4
%mem=100MW
%chk=DCUJJWWUNKIJPH-UHFFFAOYSA-N.chk
#b3lyp/6-31+G(d) opt freq

gas opt

0 1
Cl   -1.2728   -1.9465    0.1464
C   -1.3919   -0.1534    0.0002
Cl   -2.2281    0.2697   -1.5401
Cl   -2.3302    0.5022    1.3932
C   -0.0082    0.4437    0.0010
N    1.0445   -0.3511    0.0003
C    2.2744    0.1270    0.0006
Cl    3.6211   -0.9684   -0.0003
C    2.5025    1.4920    0.0012
C    1.4201    2.3572    0.0020
C    0.1426    1.8168   -0.0032
H    3.5112    1.8779    0.0014
H    1.5677    3.4271    0.0028
H   -0.7237    2.4618   -0.0031


