%nprocshared=4
%mem=100MW
%chk=DDUHZTYCFQRHIY-UHFFFAOYSA-N.chk
#b3lyp/6-31+G(d) opt freq

gas opt

0 1
Cl    1.7820   -3.0480    0.1495
C    1.8828   -1.3195    0.0241
C    3.1236   -0.6972    0.0528
O    4.2482   -1.4461    0.1781
C    5.4942   -0.7468    0.2013
C    3.2249    0.6847   -0.0460
C    2.0826    1.4530   -0.1741
O    2.1772    2.8025   -0.2704
C    3.4902    3.3652   -0.2325
C    0.8227    0.8300   -0.2046
C   -0.5325    1.3740   -0.3313
O   -0.8586    2.5383   -0.4377
C   -1.4331    0.1601   -0.3002
C   -2.3826    0.2523    0.8613
C   -3.6029   -0.3135    0.8079
C   -4.0428   -1.0077   -0.3284
O   -5.1526   -1.5016   -0.3385
C   -3.1541   -1.1472   -1.5371
C   -2.2145    0.0613   -1.6110
C   -3.0347    1.3364   -1.8167
O   -2.0063    0.9113    1.9736
C   -2.9649    0.9675    3.0627
O   -0.5720   -0.9671   -0.1531
C    0.7227   -0.5690   -0.1100
H    6.3103   -1.4618    0.3052
H    5.6154   -0.1895   -0.7276
H    5.5072   -0.0555    1.0440
H    4.1951    1.1585   -0.0224
H    4.0787    2.9705   -1.0608
H    3.4234    4.4497   -0.3187
H    3.9701    3.1045    0.7108
H   -4.2593   -0.2311    1.6615
H   -2.5661   -2.0613   -1.4535
H   -3.7671   -1.1879   -2.4374
H   -1.5200   -0.0664   -2.4414
H   -3.7238    1.4637   -0.9819
H   -2.3649    2.1947   -1.8691
H   -3.5996    1.2592   -2.7457
H   -3.8736    1.4635    2.7216
H   -3.2041   -0.0448    3.3887
H   -2.5368    1.5257    3.8952


