%nprocshared=4
%mem=100MW
%chk=DFOXKPDFWGNLJU-UHFFFAOYSA-N.chk
#b3lyp/6-31+G(d) opt freq

gas opt

0 1
O    1.4618    1.1841    0.0751
C    0.7976    0.0040    0.5316
C   -0.6375   -0.0110    0.0014
C   -0.6161    0.0027   -1.5284
C   -1.3486   -1.2745    0.4901
C   -1.3829    1.2236    0.5121
C    1.5430   -1.2307    0.0209
H    1.5125    1.2593   -0.8876
H    0.7824   -0.0058    1.6215
H   -0.0851   -0.8769   -1.8923
H   -1.6385   -0.0080   -1.9062
H   -0.1095    0.9028   -1.8766
H   -1.3638   -1.2843    1.5800
H   -2.3710   -1.2852    0.1124
H   -0.8175   -2.1541    0.1263
H   -0.8763    2.1238    0.1639
H   -2.4052    1.2129    0.1343
H   -1.3981    1.2138    1.6020
H    2.5654   -1.2200    0.3987
H    1.0364   -2.1308    0.3691
H    1.5582   -1.2209   -1.0689


