%nprocshared=4
%mem=100MW
%chk=DHKHKXVYLBGOIT-UHFFFAOYSA-N.chk
#b3lyp/6-31+G(d) opt freq

gas opt

0 1
O    1.2139   -0.4613   -0.1713
C    0.0119   -1.0713    0.3034
O   -1.1170   -0.4090   -0.2702
C   -1.5667    0.7242    0.4752
C   -2.6801    1.4340   -0.2978
C   -0.0041   -2.5474   -0.0987
C    1.3794    0.8964    0.2426
C    2.7638    1.3929   -0.1789
H   -0.0324   -0.9900    1.3895
H   -1.9482    0.3952    1.4418
H   -0.7350    1.4120    0.6279
H   -2.2985    1.7630   -1.2644
H   -3.5118    0.7462   -0.4505
H   -3.0231    2.2984    0.2708
H    0.8569   -3.0525    0.3388
H   -0.9210   -3.0126    0.2633
H    0.0401   -2.6286   -1.1848
H    0.6135    1.5148   -0.2254
H    1.2852    0.9598    1.3267
H    3.5297    0.7745    0.2891
H    2.8580    1.3295   -1.2630
H    2.8900    2.4286    0.1368


