%nprocshared=4
%mem=100MW
%chk=DJPZSBANTAQNFN-UHFFFAOYSA-N.chk
#b3lyp/6-31+G(d) opt freq

gas opt

0 1
O   -5.5823   -0.4107    1.2270
C   -5.3624   -0.7344    0.0839
O   -4.1841   -0.4330   -0.4841
C   -3.2234    0.2819    0.3329
C   -1.7728   -0.0837   -0.0912
C   -1.7077    0.0615   -1.6130
C   -1.0574    1.0337    0.6478
C    0.4413    0.9804    0.5069
C    0.9064   -0.3170   -0.1585
C    2.4338   -0.4247   -0.1196
C    2.7449   -0.8793   -1.5472
C    3.1962    0.8657   -0.0036
C    4.5335    0.8138    0.1238
C    5.2259   -0.4802    0.1614
O    6.4326   -0.5218   -0.0584
C    4.4986   -1.7533    0.4905
C    3.0096   -1.5393    0.7331
C    2.5416    2.2161   -0.0117
C    1.0338    2.1684   -0.2536
C    0.2213   -1.5143    0.4722
C   -1.2946   -1.4555    0.3518
C   -1.8035    2.2659    0.1466
C   -3.2519    1.7882    0.0336
C   -6.4084   -1.4821   -0.7021
H   -3.3711    0.0845    1.3898
H   -1.8144    1.1122   -1.8827
H   -0.7483   -0.3103   -1.9728
H   -2.5140   -0.5140   -2.0677
H   -1.2989    0.9322    1.7307
H    0.8842    0.9946    1.5208
H    0.6677   -0.2826   -1.2159
H    2.3836   -0.1318   -2.2534
H    3.8220   -0.9988   -1.6638
H    2.2506   -1.8312   -1.7412
H    5.0990    1.7525    0.2027
H    4.6411   -2.4761   -0.3187
H    4.9459   -2.1846    1.3976
H    2.8540   -1.2983    1.7888
H    2.4809   -2.4711    0.5168
H    2.7249    2.6900    0.9554
H    3.0083    2.8251   -0.7857
H    0.8346    2.0609   -1.3176
H    0.5781    3.0898    0.1095
H    0.5792   -2.4377   -0.0041
H    0.4928   -1.5682    1.5360
H   -1.7444   -1.6958    1.3281
H   -1.6384   -2.2146   -0.3644
H   -1.7312    3.0673    0.8841
H   -1.4219    2.5997   -0.8107
H   -3.6346    1.9753   -0.9667
H   -3.8678    2.3045    0.7707
H   -7.0518   -0.7704   -1.2195
H   -5.9213   -2.1288   -1.4319
H   -7.0088   -2.0879   -0.0234


