%nprocshared=4
%mem=100MW
%chk=DOFZAZXDOSGAJZ-UHFFFAOYSA-N.chk
#b3lyp/6-31+G(d) opt freq

gas opt

0 1
S   -3.3235    0.9559    0.4284
P   -1.6601    0.2452   -0.0197
S   -0.6823   -0.4268    1.7372
C    0.8181   -1.2166    1.0924
C    1.8200   -0.1400    0.6704
S    3.3761   -0.9256    0.1684
C    4.4177    0.4874   -0.2887
C    5.7893   -0.0159   -0.7430
O   -1.8599   -0.9927   -1.0296
C   -2.3380   -2.2717   -0.6082
C   -2.2922   -3.2468   -1.7863
O   -0.7660    1.3794   -0.7312
C   -0.6659    2.7160   -0.2358
C    0.2595    3.5285   -1.1438
H    1.2614   -1.8417    1.8675
H    0.5625   -1.8330    0.2305
H    1.4128    0.4272   -0.1666
H    2.0060    0.5318    1.5084
H    3.9455    1.0390   -1.1017
H    4.5387    1.1435    0.5733
H    6.2615   -0.5674    0.0700
H    5.6683   -0.6720   -1.6050
H    6.4152    0.8332   -1.0177
H   -1.7086   -2.6470    0.1988
H   -3.3646   -2.1772   -0.2543
H   -2.9216   -2.8715   -2.5932
H   -1.2656   -3.3412   -2.1401
H   -2.6569   -4.2224   -1.4648
H   -1.6551    3.1735   -0.2223
H   -0.2595    2.6992    0.7755
H    1.2488    3.0709   -1.1572
H   -0.1468    3.5453   -2.1551
H    0.3359    4.5480   -0.7659


