%nprocshared=4
%mem=100MW
%chk=DOWJXOHBNXRUOD-UHFFFAOYSA-N.chk
#b3lyp/6-31+G(d) opt freq

gas opt

0 1
C   -3.5612    1.5004   -0.0007
C   -2.6273    0.3177   -0.0011
C   -1.2394    0.5171   -0.0007
C   -0.3827   -0.6066   -0.0007
C    1.0666   -0.3871   -0.0002
C    1.5522    0.9398    0.0003
C    0.6423    2.0226   -0.0003
C   -0.6908    1.8207    0.0001
C    2.9369    1.1601    0.0008
C    3.7917    0.0971    0.0008
C    3.3098   -1.2066   -0.0002
C    1.9667   -1.4544   -0.0007
C   -0.9266   -1.8924   -0.0006
C   -2.2829   -2.0534   -0.0006
C   -3.1291   -0.9507    0.0037
H   -3.7861    1.7861   -1.0282
H   -4.4850    1.2337    0.5128
H   -3.0880    2.3368    0.5137
H    1.0236    3.0330    0.0004
H   -1.3542    2.6730   -0.0002
H    3.3253    2.1679    0.0009
H    4.8576    0.2709    0.0012
H    4.0052   -2.0329   -0.0006
H    1.6027   -2.4711   -0.0011
H   -0.2778   -2.7559   -0.0009
H   -2.7025   -3.0485   -0.0009
H   -4.1987   -1.1002    0.0037


