%nprocshared=4
%mem=100MW
%chk=DSBMOVYUOIIPDK-UHFFFAOYSA-N.chk
#b3lyp/6-31+G(d) opt freq

gas opt

0 1
O   -1.1906   -1.8964    0.8585
C   -1.3922   -0.7780    0.4361
N   -0.6544    0.3254    0.6693
C    0.5517    0.3485    1.5005
C    1.7584    0.0677    0.6427
C    2.4348    1.1109    0.0384
C    3.5417    0.8533   -0.7486
C    3.9725   -0.4475   -0.9309
C    3.2967   -1.4906   -0.3259
C    2.1924   -1.2327    0.4646
C   -1.1592    1.3971    0.0473
O   -0.6678    2.5070    0.1077
N   -2.2714    1.1087   -0.6524
C   -2.5226   -0.3313   -0.4696
C   -2.4671   -1.0622   -1.8126
C   -3.8723   -0.5597    0.2138
H    0.6553    1.3299    1.9633
H    0.4726   -0.4127    2.2767
H    2.0982    2.1272    0.1808
H    4.0697    1.6683   -1.2213
H    4.8369   -0.6488   -1.5463
H    3.6331   -2.5069   -0.4686
H    1.6644   -2.0477    0.9373
H   -2.8025    1.7276   -1.1775
H   -1.4898   -0.9080   -2.2700
H   -2.6296   -2.1281   -1.6531
H   -3.2424   -0.6710   -2.4714
H   -4.6694   -0.1608   -0.4136
H   -4.0278   -1.6282    0.3631
H   -3.8814   -0.0529    1.1788


