%nprocshared=4
%mem=100MW
%chk=DSRNRYQBBJQVCW-UHFFFAOYSA-N.chk
#b3lyp/6-31+G(d) opt freq

gas opt

0 1
Cl    3.1359   -1.9644    0.2927
C    1.9129   -0.7612    0.0277
C    2.2663    0.5777   -0.0722
O    3.5707    0.9465    0.0376
C    3.8624    2.3409   -0.0751
C    1.2898    1.5389   -0.2843
C   -0.0354    1.1651   -0.3964
C   -0.3899   -0.1732   -0.2967
N   -1.7343   -0.5525   -0.4104
C   -2.7038    0.2486    0.0740
O   -2.4192    1.3374    0.5344
N   -3.9888   -0.1572    0.0482
C   -5.0426    0.7136    0.5749
C   -4.3317   -1.4690   -0.5065
C    0.5884   -1.1366   -0.0895
H    4.9359    2.4973    0.0307
H    3.5369    2.7025   -1.0505
H    3.3368    2.8865    0.7086
H    1.5653    2.5804   -0.3616
H   -0.7956    1.9143   -0.5613
H   -1.9670   -1.3916   -0.8378
H   -4.5995    1.6395    0.9415
H   -5.7558    0.9410   -0.2175
H   -5.5568    0.2082    1.3924
H   -4.3018   -2.2174    0.2854
H   -5.3337   -1.4321   -0.9339
H   -3.6146   -1.7336   -1.2836
H    0.3131   -2.1780   -0.0119


