%nprocshared=4
%mem=100MW
%chk=DTMRKGRREZAYAP-UHFFFAOYSA-N.chk
#b3lyp/6-31+G(d) opt freq

gas opt

0 1
Cl    3.7162   -1.9111   -1.3986
C    2.8321   -0.6450   -0.6054
C    3.5126    0.3686    0.0491
Cl    5.2484    0.3699    0.0736
C    2.8125    1.3814    0.6836
Cl    3.6724    2.6485    1.5012
C    1.4312    1.3852    0.6666
C    0.7417    0.3683    0.0099
C    1.4503   -0.6465   -0.6327
Cl    0.5981   -1.9168   -1.4536
C   -0.7418    0.3681   -0.0106
C   -1.4500   -0.6493    0.6284
Cl   -0.5974   -1.9189    1.4499
C   -2.8319   -0.6447    0.6067
Cl   -3.7156   -1.9098    1.4019
C   -3.5128    0.3683   -0.0482
Cl   -5.2486    0.3696   -0.0718
C   -2.8129    1.3806   -0.6840
Cl   -3.6733    2.6467   -1.5028
C   -1.4318    1.3873   -0.6633
H    0.8866    2.1754    1.1621
H   -0.8874    2.1772   -1.1595


