%nprocshared=4
%mem=100MW
%chk=DWEPFAMAQPVFBH-UHFFFAOYSA-N.chk
#b3lyp/6-31+G(d) opt freq

gas opt

0 1
S   -3.1334   -0.0865   -0.0792
O   -3.5063   -1.3341   -0.6481
O   -3.5963    1.1626   -0.5738
N   -3.5734   -0.1498    1.5161
C   -1.3734   -0.0215   -0.1326
S   -0.4127    1.4493   -0.1201
C    1.0753    0.5159   -0.1960
S    2.7073    1.2040   -0.2391
O    2.7363    2.0306    0.9163
C    3.7230   -0.2788    0.0501
C    3.1657   -1.4000   -0.8366
C    1.8445   -1.9021   -0.2749
O    2.0606   -2.4040    1.0455
C    0.8000   -0.8014   -0.2209
C   -0.5694   -1.0762   -0.1828
H   -4.0807   -0.9063    1.8496
H   -3.3238    0.5696    2.1169
H    4.7597   -0.0754   -0.2182
H    3.6615   -0.5708    1.0984
H    3.0080   -1.0185   -1.8454
H    3.8800   -2.2227   -0.8707
H    1.4747   -2.7104   -0.9057
H    1.2624   -2.7437    1.4727
H   -0.9510   -2.0864   -0.1974


