%nprocshared=4
%mem=100MW
%chk=DZMDPHNGKBEVRE-UHFFFAOYSA-N.chk
#b3lyp/6-31+G(d) opt freq

gas opt

0 1
Cl   -3.9052    0.2269   -0.0000
C   -2.3647   -0.7101    0.0000
C   -1.1794    0.2572    0.0000
C    0.1278   -0.5379    0.0000
C    1.3132    0.4295    0.0000
C    2.6203   -0.3657   -0.0000
C    3.8057    0.6017    0.0000
C    5.1129   -0.1934   -0.0000
H   -2.3214   -1.3380    0.8900
H   -2.3214   -1.3380   -0.8900
H   -1.2228    0.8850   -0.8900
H   -1.2228    0.8850    0.8900
H    0.1712   -1.1657    0.8900
H    0.1712   -1.1657   -0.8900
H    1.2698    1.0573   -0.8900
H    1.2698    1.0573    0.8900
H    2.6637   -0.9935    0.8900
H    2.6637   -0.9935   -0.8900
H    3.7623    1.2295   -0.8900
H    3.7623    1.2295    0.8900
H    5.1562   -0.8212    0.8900
H    5.1562   -0.8212   -0.8900
H    5.9573    0.4957   -0.0000


