%nprocshared=4
%mem=100MW
%chk=DZQVFHSCSRACSX-UHFFFAOYSA-N.chk
#b3lyp/6-31+G(d) opt freq

gas opt

0 1
S    0.4882   -1.8706   -0.3193
O    1.2129   -2.9799    0.1941
O   -0.0121   -1.8170   -1.6482
N   -0.8154   -1.6607    0.6801
C   -1.7031   -0.6238    0.4511
N   -2.8831   -0.6377    1.0535
C   -3.7544    0.3378    0.8563
C   -3.4200    1.3819    0.0082
C   -4.3864    2.5111   -0.2408
C   -2.1774    1.3650   -0.6056
N   -1.3505    0.3619   -0.3610
C    1.5287   -0.4623   -0.1221
C    2.5234   -0.4686    0.8384
C    3.3407    0.6336    0.9956
C    3.1625    1.7493    0.1874
N    3.9875    2.8655    0.3434
C    2.1623    1.7522   -0.7765
C    1.3522    0.6445   -0.9321
H   -0.9569   -2.2645    1.4260
H   -4.7149    0.3207    1.3498
H   -4.2200    3.3001    0.4927
H   -4.2301    2.9086   -1.2436
H   -5.4079    2.1415   -0.1515
H   -1.8862    2.1632   -1.2723
H    2.6612   -1.3362    1.4667
H    4.1172    0.6282    1.7462
H    4.6859    2.8621    1.0166
H    3.8622    3.6439   -0.2215
H    2.0211    2.6180   -1.4064
H    0.5746    0.6460   -1.6816


