%nprocshared=4
%mem=100MW
%chk=FDDDEECHVMSUSB-UHFFFAOYSA-N.chk
#b3lyp/6-31+G(d) opt freq

gas opt

0 1
S   -1.8220    0.0014   -0.1034
O   -2.2085   -1.2486   -0.6577
O   -2.2064    1.2508   -0.6606
N   -2.3575    0.0037    1.4636
C   -0.0607   -0.0000   -0.0528
C    0.6279   -1.1991   -0.0315
C    2.0083   -1.2038    0.0082
C    2.7051   -0.0022    0.0268
N    4.1013   -0.0034    0.0665
C    2.0103    1.2004    0.0054
C    0.6300    1.1979   -0.0400
H   -2.9124   -0.7230    1.7876
H   -2.1162    0.7317    2.0575
H    0.0854   -2.1329   -0.0456
H    2.5455   -2.1406    0.0251
H    4.5854   -0.8438    0.0812
H    4.5868    0.8363    0.0795
H    2.5491    2.1364    0.0198
H    0.0892    2.1326   -0.0571


