%nprocshared=4
%mem=100MW
%chk=FERIUCNNQQJTOY-UHFFFAOYSA-N.chk
#b3lyp/6-31+G(d) opt freq

gas opt

0 1
O    1.1169   -1.2110    0.0001
C    1.0282   -0.0060    0.0020
O    2.1383    0.7487   -0.0015
C   -0.3286    0.6497    0.0019
C   -1.4154   -0.4272   -0.0008
C   -2.7930    0.2384   -0.0008
H    2.9857    0.2830   -0.0054
H   -0.4330    1.2690    0.8928
H   -0.4315    1.2719   -0.8872
H   -1.3111   -1.0465   -0.8917
H   -1.3126   -1.0494    0.8883
H   -2.8974    0.8577    0.8901
H   -2.8959    0.8606   -0.8899
H   -3.5673   -0.5288   -0.0027


