%nprocshared=4
%mem=100MW
%chk=FFGPTBGBLSHEPO-UHFFFAOYSA-N.chk
#b3lyp/6-31+G(d) opt freq

gas opt

0 1
O   -1.0354    2.6142    0.8579
C    0.0107    2.0482    0.6209
N    1.1825    2.6543    0.8968
N    0.0014    0.8108    0.0867
C   -1.1721    0.1971   -0.1865
C   -1.5268   -1.0679    0.4743
C   -2.6513   -1.6801    0.1541
C   -3.5639   -1.0836   -0.8346
C   -3.2573    0.0617   -1.4057
C   -1.9933    0.7356   -1.0653
C   -0.6718   -1.6396    1.5180
C    0.6197   -1.6518    1.5209
C    1.4912   -1.0968    0.4821
C    1.1657    0.1785   -0.1843
C    1.9892    0.6851   -1.0796
C    3.2200   -0.0365   -1.4434
C    3.4992   -1.1869   -0.8686
C    2.5908   -1.7450    0.1467
H    1.1891    3.5432    1.2849
H    2.0191    2.2015    0.7071
H   -2.9029   -2.6217    0.6193
H   -4.4848   -1.5859   -1.0916
H   -3.9316    0.5064   -2.1226
H   -1.7388    1.6734   -1.5365
H   -1.1678   -2.0925    2.3637
H    1.1027   -2.1149    2.3687
H    1.7608    1.6312   -1.5476
H    3.8920    0.3772   -2.1808
H    4.3951   -1.7242   -1.1427
H    2.8266   -2.6865    0.6204


