%nprocshared=4
%mem=100MW
%chk=FMGSKLZLMKYGDP-USOAJAOKSA-N.chk
#b3lyp/6-31+G(d) opt freq

gas opt

0 1
O   -5.0382    1.1443    0.3708
C   -4.2087    0.2912    0.1650
C   -2.7512    0.4991   -0.1238
C   -2.5291    0.5644   -1.6362
C   -2.0805   -0.7782    0.4489
H   -2.0755   -0.7534    1.5386
C   -0.6606   -0.8187   -0.0880
H   -0.6684   -0.7892   -1.1775
C    0.0821    0.4025    0.4712
H    0.1126    0.3186    1.5576
C    1.5106    0.4397   -0.0460
C    1.4973    1.0709   -1.4397
C    2.1392   -0.9177   -0.1534
C    1.5012   -2.0310    0.0604
C    0.0349   -2.0934    0.4029
C    3.6087   -0.9921   -0.5328
C    4.3959   -0.0663    0.3993
H    4.3301   -0.4385    1.4217
O    5.7651   -0.0322   -0.0081
C    3.8084    1.3444    0.3315
C    2.3749    1.3159    0.8653
C   -0.6195    1.7085    0.1091
C   -2.0847    1.6869    0.5426
C   -3.0329   -1.8679   -0.0598
C   -4.4273   -1.2183    0.1522
H   -3.0811    1.4091   -2.0484
H   -1.4661    0.6896   -1.8422
H   -2.8819   -0.3591   -2.0954
H    1.0949    2.0820   -1.3768
H    2.5138    1.1081   -1.8314
H    0.8737    0.4724   -2.1037
H    2.0386   -2.9616   -0.0478
H   -0.0855   -2.1125    1.4861
H   -0.4018   -2.9941   -0.0286
H    3.9654   -2.0159   -0.4203
H    3.7379   -0.6692   -1.5658
H    6.2025   -0.8945    0.0101
H    4.4101    2.0177    0.9420
H    3.8140    1.6904   -0.7022
H    1.9670    2.3267    0.8661
H    2.3731    0.9219    1.8816
H   -0.1133    2.5342    0.6092
H   -0.5590    1.8572   -0.9690
H   -2.5798    2.6043    0.2243
H   -2.1501    1.5850    1.6258
H   -2.8549   -2.0758   -1.1149
H   -2.9365   -2.7753    0.5363
H   -4.8519   -1.5469    1.1007
H   -5.0929   -1.4869   -0.6682


