%nprocshared=4
%mem=100MW
%chk=FMINYZXVCTYSNY-UHFFFAOYSA-N.chk
#b3lyp/6-31+G(d) opt freq

gas opt

0 1
O    1.0114   -1.3016    0.3044
C    0.6966   -0.1775   -0.0356
N    1.6491    0.7263   -0.3394
C    1.2706    2.0440   -0.8558
C    2.9998    0.4061   -0.1616
C    3.7456    1.0533    0.8148
C    5.0782    0.7346    0.9882
C    5.6700   -0.2274    0.1904
C    4.9302   -0.8733   -0.7831
C    3.5955   -0.5636   -0.9573
N   -0.6051    0.1631   -0.1141
C   -1.6406   -0.8212    0.2103
C   -1.5438   -2.0014   -0.7586
C   -1.4397   -1.3195    1.6428
C   -2.9990   -0.1803    0.0872
C   -4.1124   -0.9621   -0.1575
C   -5.3584   -0.3742   -0.2704
C   -5.4911    0.9954   -0.1382
C   -4.3777    1.7771    0.1074
C   -3.1323    1.1887    0.2247
H    1.1367    2.7355   -0.0240
H    2.0557    2.4154   -1.5144
H    0.3376    1.9615   -1.4133
H    3.2841    1.8052    1.4377
H    5.6588    1.2376    1.7474
H    6.7124   -0.4746    0.3277
H    5.3954   -1.6240   -1.4048
H    3.0182   -1.0686   -1.7175
H   -0.8563    1.0599   -0.3854
H   -0.5613   -2.4649   -0.6696
H   -2.3143   -2.7337   -0.5172
H   -1.6870   -1.6463   -1.7791
H   -1.5086   -0.4787    2.3330
H   -2.2101   -2.0518    1.8841
H   -0.4572   -1.7831    1.7318
H   -4.0088   -2.0321   -0.2608
H   -6.2283   -0.9849   -0.4623
H   -6.4644    1.4548   -0.2271
H   -4.4813    2.8472    0.2104
H   -2.2625    1.7994    0.4166


