%nprocshared=4
%mem=100MW
%chk=FNROXVCRPXYLRT-UHFFFAOYSA-N.chk
#b3lyp/6-31+G(d) opt freq

gas opt

0 1
O    3.7394   -1.6488    0.0044
C    3.9752   -0.4591    0.0038
N    5.2511   -0.0250   -0.0015
C    6.3532   -0.9902   -0.0065
C    5.5359    1.4120   -0.0021
C    2.8415    0.5337    0.0028
C    1.5075   -0.2155    0.0026
C    0.3565    0.7925    0.0015
O   -0.9096    0.0815    0.0014
C   -2.0305    0.8286    0.0005
O   -1.9525    2.0408   -0.0002
C   -3.3547    0.1736    0.0003
C   -4.5186    0.9449   -0.0007
C   -5.7518    0.3268   -0.0014
C   -5.8370   -1.0542   -0.0006
C   -4.6876   -1.8246    0.0008
C   -3.4479   -1.2195   -0.0048
H    6.6222   -1.2292   -1.0354
H    7.2151   -0.5602    0.5038
H    6.0424   -1.8993    0.5083
H    5.6110    1.7681    1.0253
H    6.4774    1.5956   -0.5199
H    4.7314    1.9416   -0.5123
H    2.9063    1.1602    0.8924
H    2.9071    1.1591   -0.8875
H    1.4427   -0.8419   -0.8870
H    1.4419   -0.8409    0.8929
H    0.4212    1.4190    0.8912
H    0.4220    1.4179   -0.8888
H   -4.4535    2.0230   -0.0005
H   -6.6529    0.9222   -0.0021
H   -6.8050   -1.5331   -0.0008
H   -4.7612   -2.9021    0.0020
H   -2.5516   -1.8220   -0.0037


