%nprocshared=4
%mem=100MW
%chk=FSVJFNAIGNNGKK-UHFFFAOYSA-N.chk
#b3lyp/6-31+G(d) opt freq

gas opt

0 1
O   -1.5690    2.2706    1.2912
C   -1.3389    1.4819    0.3991
N   -0.2424    1.6350   -0.3695
C    0.6491    2.7991   -0.2171
C    2.0473    2.2689   -0.0257
O    2.8836    2.9750    0.4967
N    2.3853    1.0337   -0.4202
C    1.5299    0.1421   -1.1829
C    1.5267   -1.2339   -0.5736
C    2.4439   -1.6045    0.3870
C    2.4073   -2.8924    0.9054
C    1.4572   -3.7954    0.4748
C    0.5327   -3.4187   -0.4812
C    0.5697   -2.1413   -1.0029
C    3.4892   -0.6615    0.9208
C    3.7135    0.5103   -0.0337
C    0.1218    0.6472   -1.3920
C   -2.2757    0.3273    0.1539
C   -3.0680    0.0336    1.4294
C   -4.0192   -1.1387    1.1805
C   -4.9863   -0.7797    0.0506
C   -4.1940   -0.4860   -1.2249
C   -3.2429    0.6863   -0.9760
H    0.6067    3.4187   -1.1129
H    0.3513    3.3831    0.6537
H    1.9755    0.0464   -2.1730
H    3.1291   -3.1898    1.6517
H    1.4361   -4.7948    0.8836
H   -0.2156   -4.1206   -0.8182
H   -0.1516   -1.8464   -1.7507
H    3.1639   -0.2776    1.8878
H    4.4267   -1.2025    1.0492
H    4.2482    0.1682   -0.9198
H    4.2870    1.2904    0.4669
H   -0.5713   -0.1927   -1.3439
H    0.0505    1.1141   -2.3744
H   -1.6998   -0.5545   -0.1272
H   -2.3790   -0.2221    2.2344
H   -3.6439    0.9154    1.7105
H   -3.4433   -2.0204    0.8994
H   -4.5836   -1.3479    2.0892
H   -5.6639   -1.6148   -0.1268
H   -5.5622    0.1021    0.3317
H   -3.6181   -1.3678   -1.5060
H   -4.8830   -0.2303   -2.0299
H   -3.8187    1.5680   -0.6949
H   -2.6784    0.8954   -1.8847


