%nprocshared=4
%mem=100MW
%chk=FUKCEEDRHGCYHH-UHFFFAOYSA-N.chk
#b3lyp/6-31+G(d) opt freq

gas opt

0 1
O    1.3266   -1.2406    0.0097
C    1.5322   -0.0453    0.0086
N    2.7967    0.4210    0.0047
C    3.9229   -0.5159    0.0018
C    5.2375    0.2669   -0.0024
C    6.4137   -0.7116   -0.0054
C    7.7283    0.0711   -0.0096
C    0.3736    0.9185    0.0053
O   -0.8739    0.1756    0.0040
C   -2.0135    0.8940    0.0010
O   -1.9663    2.1078   -0.0004
C   -3.3206    0.2057   -0.0005
C   -4.5037    0.9472   -0.0035
C   -5.7208    0.2981   -0.0054
C   -5.7710   -1.0847   -0.0039
C   -4.6024   -1.8257   -0.0004
C   -3.3785   -1.1894   -0.0048
H    2.9611    1.3770    0.0038
H    3.8762   -1.1429    0.8922
H    3.8710   -1.1436   -0.8878
H    5.2842    0.8939   -0.8927
H    5.2894    0.8946    0.8872
H    6.3670   -1.3387    0.8849
H    6.3618   -1.3394   -0.8950
H    8.5662   -0.6260   -0.0118
H    7.7750    0.6982   -0.8999
H    7.7802    0.6989    0.8800
H    0.4213    1.5469    0.8946
H    0.4245    1.5448   -0.8853
H   -4.4659    2.0266   -0.0040
H   -6.6367    0.8704   -0.0078
H   -6.7266   -1.5879   -0.0050
H   -4.6487   -2.9047    0.0015
H   -2.4672   -1.7689   -0.0020


