%nprocshared=4
%mem=100MW
%chk=FXHOOIRPVKKKFG-UHFFFAOYSA-N.chk
#b3lyp/6-31+G(d) opt freq

gas opt

0 1
O   -1.0455   -1.3439   -0.0506
C   -0.6746   -0.1902   -0.0020
N    0.6427    0.0948    0.0003
C    1.6266   -0.9896    0.0480
C    1.0907    1.4888   -0.0449
C   -1.6869    0.9251    0.0496
H    1.8802   -1.2950   -0.9671
H    2.5251   -0.6428    0.5583
H    1.2064   -1.8379    0.5883
H    0.2266    2.1503    0.0171
H    1.7582    1.6834    0.7945
H    1.6205    1.6700   -0.9801
H   -1.8550    1.2155    1.0866
H   -1.3128    1.7815   -0.5114
H   -2.6249    0.5850   -0.3892


