%nprocshared=4
%mem=100MW
%chk=FZSVSABTBYGOQH-UHFFFAOYSA-N.chk
#b3lyp/6-31+G(d) opt freq

gas opt

0 1
S    2.1740    1.8127   -0.0026
C    2.2615    0.0009   -0.0205
C    0.8672   -0.5698    0.0173
N   -0.1439    0.2135    0.0549
O   -1.2701   -0.2409   -0.0386
C   -2.2894    0.6374    0.0083
O   -2.0632    1.8243    0.1387
N   -3.5605    0.2004   -0.0894
C   -4.6697    1.1561   -0.0384
C    0.6638   -2.0630    0.0110
C   -0.8326   -2.3735   -0.0613
C    1.3697   -2.6687   -1.2038
C    1.2477   -2.6627    1.2917
C    3.9189    2.3060   -0.0519
H    2.7648   -0.3296   -0.9291
H    2.8192   -0.3446    0.8499
H   -3.7410   -0.7470   -0.1935
H   -4.5728    1.8692   -0.8571
H   -5.6148    0.6213   -0.1325
H   -4.6468    1.6889    0.9122
H   -1.2487   -1.9463   -0.9737
H   -0.9798   -3.4535   -0.0659
H   -1.3355   -1.9419    0.8041
H    2.4357   -2.4475   -1.1522
H    1.2225   -3.7488   -1.2083
H    0.9536   -2.2415   -2.1162
H    0.7449   -2.2311    2.1572
H    1.1006   -3.7427    1.2872
H    2.3138   -2.4415    1.3433
H    4.3808    1.9178   -0.9597
H    3.9894    3.3937   -0.0449
H    4.4352    1.9028    0.8194


