%nprocshared=4
%mem=100MW
%chk=GABQNAFEZZDSCM-UHFFFAOYSA-N.chk
#b3lyp/6-31+G(d) opt freq

gas opt

0 1
O   -2.1773   -1.9787   -0.1355
C   -1.9827   -0.7794   -0.1089
O   -0.7282   -0.2979   -0.2124
C    0.3414   -1.2698   -0.3530
C    1.6625   -0.5517   -0.4539
C    2.7045   -0.9795    0.2450
C    4.0003   -0.2752    0.1460
C    5.0991   -0.7230    0.8803
C    6.3058   -0.0611    0.7834
C    6.4276    1.0446   -0.0391
C    5.3419    1.4939   -0.7694
C    4.1315    0.8369   -0.6866
C   -3.1184    0.1481    0.0303
C   -4.4353   -0.3397    0.0145
N   -4.6742   -1.6995   -0.1325
C   -5.4975    0.5456    0.1472
C   -5.2575    1.8966    0.2936
C   -3.9592    2.3812    0.3096
C   -2.8923    1.5186    0.1847
H    0.3510   -1.9278    0.5159
H    0.1792   -1.8606   -1.2545
H    1.7603    0.3115   -1.0956
H    2.6067   -1.8427    0.8866
H    5.0050   -1.5856    1.5233
H    7.1570   -0.4067    1.3513
H    7.3742    1.5594   -0.1111
H    5.4434    2.3579   -1.4094
H    3.2846    1.1886   -1.2572
H   -3.9320   -2.3240   -0.1427
H   -5.5832   -2.0250   -0.2250
H   -6.5123    0.1762    0.1354
H   -6.0868    2.5808    0.3960
H   -3.7828    3.4405    0.4244
H   -1.8827    1.9019    0.1979


