%nprocshared=4
%mem=100MW
%chk=GECHUMIMRBOMGK-UHFFFAOYSA-N.chk
#b3lyp/6-31+G(d) opt freq

gas opt

0 1
S   -0.1227   -1.7544   -0.2730
O    0.3506   -2.9713    0.2876
O   -0.5846   -1.6436   -1.6123
N   -1.3673   -1.2469    0.6943
C   -2.0215   -0.0524    0.4158
N   -1.6446    0.6750   -0.6247
C   -2.2391    1.8142   -0.9241
C   -3.2829    2.2914   -0.1565
C   -3.7086    1.5587    0.9433
C   -3.0698    0.3653    1.2290
C    1.1837   -0.5850   -0.0988
C    2.1436   -0.7638    0.8805
C    3.1688    0.1509    1.0198
C    3.2352    1.2515    0.1749
N    4.2710    2.1783    0.3127
C    2.2693    1.4281   -0.8077
C    1.2499    0.5065   -0.9452
H   -1.6398   -1.7830    1.4553
H   -1.9047    2.3810   -1.7804
H   -3.7630    3.2253   -0.4088
H   -4.5226    1.9106    1.5597
H   -3.3756   -0.2300    2.0766
H    2.0912   -1.6195    1.5373
H    3.9180    0.0108    1.7850
H    4.9451    2.0537    0.9990
H    4.3163    2.9464   -0.2779
H    2.3179    2.2827   -1.4662
H    0.4988    0.6430   -1.7092


