%nprocshared=4
%mem=100MW
%chk=GETQZCLCWQTVFV-UHFFFAOYSA-N.chk
#b3lyp/6-31+G(d) opt freq

gas opt

0 1
N   -0.0000   -0.0000    0.3615
C    0.9279   -1.0455   -0.0898
C    0.4415    1.3264   -0.0898
C   -1.3694   -0.2808   -0.0898
H    1.9204   -0.8506    0.3164
H    0.5774   -2.0173    0.2580
H    0.9745   -1.0446   -1.1789
H    0.4174    1.3662   -1.1789
H   -0.2236    2.0884    0.3164
H    1.4583    1.5087    0.2580
H   -1.6712   -1.2688    0.2580
H   -2.0471    0.4701    0.3164
H   -1.4061   -0.2522   -1.1789


