%nprocshared=4
%mem=100MW
%chk=GIUGGRUEPHPVNR-UHFFFAOYSA-N.chk
#b3lyp/6-31+G(d) opt freq

gas opt

0 1
Cl   -4.4241    0.6615   -0.0001
C   -2.8077    0.0283   -0.0005
C   -1.7266    0.8936   -0.0005
C   -0.4372    0.3892   -0.0009
O    0.6268    1.2365   -0.0004
C    1.8923    0.7380   -0.0003
C    2.0984   -0.6385   -0.0007
O    1.0346   -1.4860   -0.0011
C   -0.2311   -0.9874   -0.0012
C   -1.3156   -1.8480   -0.0013
C   -2.6022   -1.3390    0.0049
C    3.3877   -1.1433   -0.0002
C    4.4683   -0.2790    0.0008
C    4.2637    1.0875    0.0012
C    2.9775    1.5978    0.0006
H   -1.8891    1.9613   -0.0006
H   -1.1574   -2.9163   -0.0019
H   -3.4477   -2.0110    0.0048
H    3.5499   -2.2110   -0.0001
H    5.4737   -0.6733    0.0015
H    5.1097    1.7589    0.0019
H    2.8203    2.6663    0.0003


