%nprocshared=4
%mem=100MW
%chk=GKEUODMJRFDLJY-UHFFFAOYSA-N.chk
#b3lyp/6-31+G(d) opt freq

gas opt

0 1
C   -3.1406    1.9132   -0.0007
C   -2.4359    0.5811   -0.0008
C   -1.0579    0.5306   -0.0007
C   -0.4003   -0.6964   -0.0003
C    1.0664   -0.4709    0.0001
C    1.3251    0.8973    0.0000
C    2.6238    1.3594    0.0003
C    3.6781    0.4629    0.0004
C    3.4313   -0.8979    0.0000
C    2.1346   -1.3693    0.0006
C   -0.0045    1.6111   -0.0005
C   -1.1496   -1.8745   -0.0010
C   -2.5275   -1.8145   -0.0022
C   -3.1719   -0.5904    0.0049
H   -3.3105    2.2344   -1.0284
H   -4.0972    1.8181    0.5131
H   -2.5239    2.6505    0.5132
H    2.8187    2.4216    0.0002
H    4.6951    0.8264    0.0003
H    4.2568   -1.5944   -0.0003
H    1.9463   -2.4327    0.0004
H   -0.0991    2.2276   -0.8945
H   -0.0997    2.2279    0.8932
H   -0.6504   -2.8322   -0.0011
H   -3.1056   -2.7268   -0.0031
H   -4.2512   -0.5491    0.0040


