%nprocshared=4
%mem=100MW
%chk=GLDOVTGHNKAZLK-UHFFFAOYSA-N.chk
#b3lyp/6-31+G(d) opt freq

gas opt

0 1
O   11.0836   -0.3746   -0.0000
C    9.9178    0.4517    0.0000
C    8.6675   -0.4302   -0.0000
C    7.4193    0.4546    0.0000
C    6.1691   -0.4273   -0.0000
C    4.9208    0.4575    0.0000
C    3.6706   -0.4244   -0.0000
C    2.4224    0.4604    0.0000
C    1.1721   -0.4215   -0.0000
C   -0.0761    0.4633    0.0000
C   -1.3264   -0.4186    0.0000
C   -2.5746    0.4662   -0.0000
C   -3.8249   -0.4157    0.0000
C   -5.0731    0.4691   -0.0000
C   -6.3233   -0.4128    0.0000
C   -7.5715    0.4720   -0.0000
C   -8.8218   -0.4099    0.0000
C  -10.0700    0.4749   -0.0000
C  -11.3203   -0.4070    0.0000
H   11.9154    0.1186    0.0000
H    9.9185    1.0811    0.8900
H    9.9185    1.0811   -0.8900
H    8.6668   -1.0595   -0.8900
H    8.6668   -1.0595    0.8900
H    7.4201    1.0840    0.8900
H    7.4201    1.0840   -0.8900
H    6.1683   -1.0566   -0.8900
H    6.1683   -1.0566    0.8900
H    4.9216    1.0868    0.8900
H    4.9216    1.0868   -0.8900
H    3.6699   -1.0537   -0.8900
H    3.6699   -1.0537    0.8900
H    2.4231    1.0897    0.8900
H    2.4231    1.0897   -0.8900
H    1.1714   -1.0508   -0.8900
H    1.1714   -1.0508    0.8900
H   -0.0754    1.0926    0.8900
H   -0.0754    1.0926   -0.8900
H   -1.3271   -1.0479   -0.8900
H   -1.3271   -1.0479    0.8900
H   -2.5739    1.0955    0.8900
H   -2.5739    1.0955   -0.8900
H   -3.8256   -1.0450   -0.8900
H   -3.8256   -1.0450    0.8900
H   -5.0723    1.0984    0.8900
H   -5.0723    1.0984   -0.8900
H   -6.3241   -1.0421   -0.8900
H   -6.3241   -1.0421    0.8900
H   -7.5708    1.1013    0.8900
H   -7.5708    1.1013   -0.8900
H   -8.8225   -1.0392   -0.8900
H   -8.8225   -1.0392    0.8900
H  -10.0693    1.1042    0.8900
H  -10.0693    1.1042   -0.8900
H  -12.2095    0.2234   -0.0000
H  -11.3210   -1.0363   -0.8900
H  -11.3210   -1.0363    0.8900


