%nprocshared=4
%mem=100MW
%chk=GLUUGHFHXGJENI-UHFFFAOYSA-N.chk
#b3lyp/6-31+G(d) opt freq

gas opt

0 1
N   -0.0000   -1.4069    0.2168
C   -1.2102   -0.7209   -0.2568
C   -1.2102    0.7209    0.2568
N    0.0000    1.4069   -0.2168
C    1.2102    0.7209    0.2568
C    1.2102   -0.7209   -0.2568
H   -0.0000   -1.4871    1.2226
H   -1.2240   -0.7186   -1.3468
H   -2.0926   -1.2402    0.1172
H   -2.0926    1.2402   -0.1172
H   -1.2240    0.7186    1.3468
H    0.0000    1.4871   -1.2226
H    2.0926    1.2402   -0.1172
H    1.2240    0.7186    1.3468
H    2.0926   -1.2402    0.1172
H    1.2240   -0.7186   -1.3468


