%nprocshared=4
%mem=100MW
%chk=GMVJKSNPLYBFSO-UHFFFAOYSA-N.chk
#b3lyp/6-31+G(d) opt freq

gas opt

0 1
Br   -0.0000   -1.6288    0.0019
C   -0.0000    0.2622    0.0020
C    1.1983    0.9546    0.0008
Br    2.8364    0.0099   -0.0016
C    1.1974    2.3378    0.0009
C    0.0000    3.0285    0.0027
C   -1.1973    2.3378    0.0039
C   -1.1983    0.9546   -0.0025
Br   -2.8364    0.0099   -0.0016
H    2.1324    2.8782    0.0000
H    0.0000    4.1085    0.0035
H   -2.1324    2.8783    0.0052


