%nprocshared=4
%mem=100MW
%chk=GNHMRTZZNHZDDM-UHFFFAOYSA-N.chk
#b3lyp/6-31+G(d) opt freq

gas opt

0 1
Cl   -2.0280    0.0236   -0.0000
C   -0.3255   -0.5699    0.0000
C    0.6309    0.6244    0.0000
C    2.0209    0.1398   -0.0000
N    3.0935   -0.2341   -0.0000
H   -0.1516   -1.1747    0.8900
H   -0.1516   -1.1747   -0.8900
H    0.4569    1.2291   -0.8900
H    0.4569    1.2291    0.8900


