%nprocshared=4
%mem=100MW
%chk=GOHBXWHNJHENRX-UHFFFAOYSA-N.chk
#b3lyp/6-31+G(d) opt freq

gas opt

0 1
C    0.6302    2.9123    0.6236
C   -0.1918    1.6879    0.3078
C    0.3891    0.4262    0.1349
C   -0.4561   -0.7131    0.1494
C   -1.8972   -0.5254   -0.0071
C   -2.4124    0.7918   -0.0133
C   -1.5331    1.8719    0.1912
C   -3.7878    0.9939   -0.1921
C   -4.6163   -0.0793   -0.3208
C   -4.1130   -1.3758   -0.2826
C   -2.7773   -1.6063   -0.1327
C    0.0886   -1.9895    0.3500
C    1.4259   -2.1881    0.3868
C    2.3180   -1.1195    0.1499
C    1.8124    0.1825   -0.0995
C    2.7021    1.1464   -0.5730
C    4.0400    0.8853   -0.6339
C    4.5477   -0.3490   -0.2428
C    3.7039   -1.3429    0.1557
H    0.9354    3.3944   -0.3052
H    0.0342    3.6074    1.2150
H    1.5150    2.6200    1.1891
H   -1.9335    2.8751    0.2606
H   -4.1900    1.9976   -0.2181
H   -5.6786    0.0771   -0.4420
H   -4.7925   -2.2123   -0.3703
H   -2.4037   -2.6199   -0.1024
H   -0.5685   -2.8364    0.4836
H    1.8179   -3.1716    0.5930
H    2.3501    2.0896   -0.9660
H    4.7172    1.6522   -0.9842
H    5.6112   -0.5215   -0.2570
H    4.0982   -2.2941    0.4803


