%nprocshared=4
%mem=100MW
%chk=GPTONYMQFTZPKC-UHFFFAOYSA-N.chk
#b3lyp/6-31+G(d) opt freq

gas opt

0 1
S    1.0717   -1.8641   -0.4140
O    2.0158   -2.8405    0.0039
O    0.5160   -1.8298   -1.7214
N   -0.2057   -1.9699    0.6345
C   -1.2859   -1.1112    0.5000
N   -2.4145   -1.3899    1.1343
C   -3.4653   -0.5931    1.0289
C   -3.3730    0.5479    0.2401
O   -4.4327    1.3905    0.1085
C   -4.2491    2.5390   -0.7217
C   -2.1724    0.8078   -0.4107
N   -1.1609   -0.0306   -0.2552
C    1.8307   -0.2952   -0.1548
C    2.8470   -0.1655    0.7740
C    3.4440    1.0627    0.9797
C    3.0225    2.1686    0.2524
N    3.6245    3.4121    0.4575
C    2.0014    2.0348   -0.6798
C    1.4125    0.8025   -0.8846
H   -0.1982   -2.6327    1.3427
H   -4.3829   -0.8262    1.5485
H   -5.1682    3.1247   -0.7402
H   -3.4376    3.1487   -0.3242
H   -4.0013    2.2197   -1.7340
H   -2.0655    1.6851   -1.0315
H    3.1740   -1.0257    1.3394
H    4.2374    1.1633    1.7055
H    4.3377    3.5043    1.1085
H    3.3293    4.1836   -0.0509
H    1.6713    2.8926   -1.2469
H    0.6188    0.6977   -1.6094


