%nprocshared=4
%mem=100MW
%chk=GRFNBEZIAWKNCO-UHFFFAOYSA-N.chk
#b3lyp/6-31+G(d) opt freq

gas opt

0 1
O    2.2673   -0.0018   -0.0372
C    0.9084   -0.0135   -0.0201
C    0.1945    1.1763   -0.0124
N   -1.1235    1.1697    0.0042
C   -1.8124    0.0453    0.0142
C   -1.1718   -1.1794    0.0079
C    0.2133   -1.2183   -0.0158
H    2.6717    0.0025    0.8412
H    0.7242    2.1174   -0.0198
H   -2.8917    0.0819    0.0278
H   -1.7440   -2.0953    0.0165
H    0.7402   -2.1610   -0.0216


