%nprocshared=4
%mem=100MW
%chk=GRWAIJBHBCCLGS-UHFFFAOYSA-N.chk
#b3lyp/6-31+G(d) opt freq

gas opt

0 1
O    1.4482   -1.0881    0.5579
C    1.8070   -0.0461    0.0625
O    3.1161    0.2298   -0.0458
C    0.7849    0.9410   -0.4394
N   -0.5609    0.4078   -0.2137
N   -1.0114   -0.7316   -0.6177
N   -2.2335   -0.8551   -0.2322
N   -2.5843    0.1979    0.4220
C   -1.5577    1.0121    0.4592
H    3.7340   -0.4357    0.2865
H    0.8967    1.8837    0.0962
H    0.9350    1.1089   -1.5058
H   -1.5210    1.9824    0.9321


