%nprocshared=4
%mem=100MW
%chk=GSDSWSVVBLHKDQ-UHFFFAOYSA-N.chk
#b3lyp/6-31+G(d) opt freq

gas opt

0 1
F    1.9383   -2.5432   -0.1448
C    0.9815   -1.5921   -0.0735
C    1.3436   -0.2468    0.0186
N    2.6938    0.1080    0.0413
C    3.3559   -0.2586   -1.2184
C    4.8102    0.2172   -1.1846
N    5.4955   -0.3918   -0.0361
C    6.9161   -0.0185   -0.0123
C    4.8335   -0.0251    1.2236
C    3.3792   -0.5009    1.1898
C    0.3706    0.7398    0.0874
O    0.7309    2.0499    0.1850
C   -0.2009    2.9043    0.8594
C   -1.5634    2.7840    0.1715
C   -1.4692    3.3430   -1.2496
N   -1.9572    1.3680    0.1169
C   -0.9788    0.3917    0.0611
C   -1.3285   -0.9677   -0.0221
C   -2.7551   -1.3328   -0.0327
O   -3.1141   -2.4954   -0.1059
C   -3.7284   -0.2315    0.0497
C   -5.1711   -0.5098    0.0553
O   -5.9667    0.4069    0.1236
O   -5.6125   -1.7816   -0.0153
C   -3.2655    1.0645    0.1210
C   -0.3371   -1.9498   -0.0975
H    3.3303   -1.3414   -1.3409
H    2.8378    0.2144   -2.0526
H    5.3113   -0.0792   -2.1061
H    4.8355    1.3027   -1.0894
H    7.0058    1.0653    0.0617
H    7.3994   -0.4826    0.8475
H    7.3973   -0.3612   -0.9283
H    5.3516   -0.4982    2.0578
H    4.8591    1.0577    1.3461
H    2.8781   -0.2046    2.1113
H    3.3539   -1.5865    1.0946
H   -0.2893    2.5984    1.9018
H    0.1453    3.9365    0.8069
H   -2.3067    3.3473    0.7356
H   -0.7266    2.7786   -1.8136
H   -2.4394    3.2572   -1.7388
H   -1.1744    4.3916   -1.2087
H   -6.5703   -1.9149   -0.0085
H   -3.9838    1.8687    0.1831
H   -0.6130   -2.9917   -0.1665


