%nprocshared=4
%mem=100MW
%chk=GTCAXTIRRLKXRU-UHFFFAOYSA-N.chk
#b3lyp/6-31+G(d) opt freq

gas opt

0 1
O   -0.3820   -1.2518    0.0002
C   -0.4760   -0.0403    0.0019
O    0.6344    0.7211    0.0013
C    1.9097    0.0269   -0.0014
N   -1.6919    0.5413   -0.0013
H    1.9844   -0.5993    0.8877
H    1.9819   -0.5970   -0.8923
H    2.7201    0.7558   -0.0016
H   -2.4919   -0.0073   -0.0049
H   -1.7669    1.5083    0.0001


