%nprocshared=4
%mem=100MW
%chk=GVEPBJHOBDJJJI-UHFFFAOYSA-N.chk
#b3lyp/6-31+G(d) opt freq

gas opt

0 1
C   -0.8771    0.0000    0.0018
C   -2.3347   -0.0000    0.0043
C   -2.9647    1.2414    0.0036
C   -2.1672    2.3925   -0.0003
C   -0.7714    2.3565   -0.0031
C   -0.0991    1.1369   -0.0019
C    1.2937    0.6640   -0.0015
C    1.2937   -0.6639    0.0011
C   -0.0991   -1.1368   -0.0030
C   -0.7712   -2.3565   -0.0046
C   -2.1671   -2.3926   -0.0069
C   -2.9646   -1.2415    0.0060
C    2.5741   -1.3920    0.0042
C    3.7136   -0.7365    0.0041
C    3.7136    0.7365    0.0000
C    2.5742    1.3920   -0.0034
H   -4.0422    1.3150    0.0057
H   -2.6559    3.3556   -0.0015
H   -0.2102    3.2792   -0.0068
H   -0.2100   -3.2792   -0.0044
H   -2.6557   -3.3557   -0.0080
H   -4.0421   -1.3151    0.0043
H    2.5768   -2.4720    0.0069
H    4.6485   -1.2772    0.0073
H    4.6485    1.2772   -0.0005
H    2.5769    2.4720   -0.0071


