%nprocshared=4
%mem=100MW
%chk=GWDYJKXSUSPLEA-UHFFFAOYSA-N.chk
#b3lyp/6-31+G(d) opt freq

gas opt

0 1
O   -1.6501   -2.7651    0.0011
C   -1.2213   -1.6243    0.0013
N    0.1023   -1.3781    0.0013
C    0.5649   -0.1498    0.0011
C    2.0277    0.0468    0.0010
C    2.8841   -1.0569    0.0012
C    4.2500   -0.8656    0.0007
C    4.7726    0.4158   -0.0000
C    3.9302    1.5137    0.0003
C    2.5623    1.3375   -0.0050
O   -0.2221    0.9354    0.0005
C   -1.5687    0.8206    0.0005
C   -2.1358   -0.4649   -0.0046
C   -3.5189   -0.6187   -0.0047
C   -4.3258    0.4999    0.0002
C   -3.7659    1.7683    0.0047
C   -2.3953    1.9331   -0.0002
H    2.4777   -2.0575    0.0021
H    4.9134   -1.7179    0.0011
H    5.8429    0.5597   -0.0004
H    4.3449    2.5109    0.0001
H    1.9060    2.1952   -0.0051
H   -3.9569   -1.6059   -0.0089
H   -5.3999    0.3871    0.0001
H   -4.4087    2.6363    0.0077
H   -1.9687    2.9253    0.0038


