%nprocshared=4
%mem=100MW
%chk=GYFAGKUZYNFMBN-UHFFFAOYSA-N.chk
#b3lyp/6-31+G(d) opt freq

gas opt

0 1
C    0.7053   -0.8742   -0.0019
C   -0.7054   -0.8742   -0.0014
C   -1.4217    0.3421    0.0008
C   -0.7366    1.5769    0.0025
C    0.7368    1.5769    0.0014
C    1.4217    0.3420   -0.0002
C    2.8343    0.3156   -0.0012
C    3.5073   -0.9279   -0.0025
C    2.8171   -2.0922   -0.0032
C    1.4040   -2.0996    0.0018
C    0.6793   -3.3053    0.0016
C   -0.6796   -3.3052    0.0064
C   -1.4043   -2.0995   -0.0025
C   -2.8173   -2.0919    0.0030
C   -3.5074   -0.9276   -0.0058
C   -2.8343    0.3158    0.0018
C   -3.5363    1.5276   -0.0071
C   -2.8516    2.7230    0.0006
C   -1.4660    2.7584    0.0055
C    3.5365    1.5273   -0.0014
C    2.8519    2.7227   -0.0006
C    1.4662    2.7583    0.0030
H    4.5871   -0.9490   -0.0033
H    3.3541   -3.0292   -0.0049
H    1.2110   -4.2453   -0.0029
H   -1.2114   -4.2452    0.0054
H   -3.3545   -3.0288    0.0139
H   -4.5872   -0.9485   -0.0016
H   -4.6162    1.5250   -0.0203
H   -3.4050    3.6504   -0.0067
H   -0.9519    3.7082    0.0119
H    4.6165    1.5245   -0.0018
H    3.4055    3.6501   -0.0004
H    0.9523    3.7082    0.0031


