%nprocshared=4
%mem=100MW
%chk=GYTMHWVFKHLDEA-UHFFFAOYSA-N.chk
#b3lyp/6-31+G(d) opt freq

gas opt

0 1
S   -2.9037    1.3177   -0.0193
O   -2.0524    2.3729    0.4062
O   -4.1385    1.0118    0.6139
N   -3.2548    1.6128   -1.6106
C   -1.9375   -0.1547    0.0371
S   -2.5942   -1.7751    0.1885
C   -1.0450   -2.4852    0.1585
C   -0.0785   -1.5323    0.0390
C    1.3592   -1.8369   -0.0144
O    1.7341   -2.9923   -0.0793
C    2.3489   -0.7389    0.0109
C    2.0683    0.4424    0.7002
C    2.9961    1.4630    0.7197
C    4.2026    1.3181    0.0576
C    5.2112    2.4375    0.0829
C    4.4873    0.1498   -0.6271
C    3.5707   -0.8808   -0.6498
C   -0.6128   -0.1919   -0.0346
H   -2.9640    2.4397   -2.0261
H   -3.7512    0.9589   -2.1271
H   -0.8552   -3.5462    0.2254
H    1.1267    0.5570    1.2167
H    2.7803    2.3772    1.2525
H    5.8733    2.3107    0.9394
H    5.7976    2.4190   -0.8357
H    4.6920    3.3926    0.1633
H    5.4309    0.0431   -1.1414
H    3.7941   -1.7921   -1.1845
H    0.0032    0.6899   -0.1313


