%nprocshared=4
%mem=100MW
%chk=HAPOJKSPCGLOOD-UHFFFAOYSA-N.chk
#b3lyp/6-31+G(d) opt freq

gas opt

0 1
C   -1.9658    0.6984   -0.0015
C   -2.2404   -0.6928   -0.0007
C   -1.1744   -1.6091   -0.0006
C    0.1074   -1.1604   -0.0007
C    0.3957    0.2137   -0.0015
C    1.8680    0.4049   -0.0010
C    2.4989   -0.8360    0.0000
C    3.8757   -0.9154    0.0013
C    4.6365    0.2405    0.0016
C    4.0185    1.4778    0.0006
C    2.6418    1.5669   -0.0014
C    1.4262   -1.8970    0.0002
C   -0.6349    1.1400   -0.0021
C   -3.5753   -1.1311    0.0005
C   -4.5850   -0.2181    0.0008
C   -4.3157    1.1494   -0.0005
C   -3.0358    1.6114    0.0042
H   -1.3748   -2.6704    0.0000
H    4.3605   -1.8805    0.0025
H    5.7146    0.1763    0.0030
H    4.6159    2.3776    0.0008
H    2.1630    2.5350   -0.0025
H    1.5100   -2.5147    0.8943
H    1.5107   -2.5158   -0.8931
H   -0.4141    2.1972   -0.0030
H   -3.7994   -2.1876    0.0008
H   -5.6099   -0.5585    0.0017
H   -5.1352    1.8528   -0.0006
H   -2.8425    2.6740    0.0032


