%nprocshared=4
%mem=100MW
%chk=HAXBIWFMXWRORI-UHFFFAOYSA-N.chk
#b3lyp/6-31+G(d) opt freq

gas opt

0 1
C   -1.9932    0.0000   -0.0015
C   -3.3913   -0.0001   -0.0064
C   -4.0384    1.2475   -0.0068
C   -3.2803    2.3860   -0.0008
C   -1.8863    2.3695    0.0043
C   -1.2121    1.1603    0.0035
C    0.1962    0.7136    0.0048
C    0.1964   -0.7131    0.0039
C   -1.2118   -1.1603    0.0050
C   -1.8857   -2.3695    0.0045
C   -3.2797   -2.3866    0.0042
C   -4.0376   -1.2479   -0.0111
C    1.3897   -1.4058    0.0044
C    2.6077   -0.7095    0.0021
C    2.6076    0.7098    0.0031
C    1.3896    1.4062    0.0066
C    3.8344    1.3977   -0.0011
C    5.0010    0.6968   -0.0068
C    5.0010   -0.6969   -0.0076
C    3.8343   -1.3977   -0.0028
H   -5.1168    1.3063   -0.0121
H   -3.7845    3.3411   -0.0004
H   -1.3338    3.2974    0.0093
H   -1.3329   -3.2973    0.0040
H   -3.7838   -3.3417    0.0036
H   -5.1160   -1.3068   -0.0115
H    1.3862   -2.4858    0.0068
H    1.3861    2.4862    0.0105
H    3.8505    2.4776   -0.0003
H    5.9409    1.2287   -0.0112
H    5.9410   -1.2288   -0.0124
H    3.8503   -2.4776   -0.0023


