%nprocshared=4
%mem=100MW
%chk=HDWIHXWEUNVBIY-UHFFFAOYSA-N.chk
#b3lyp/6-31+G(d) opt freq

gas opt

0 1
S    3.7151   -0.3381   -0.7502
O    3.8882    0.8528   -1.5058
O    3.9150   -1.6372   -1.2902
N    4.7255   -0.2142    0.5560
C    2.0635   -0.3028   -0.1373
C    1.5705    0.8427    0.4608
C    2.4464    2.0632    0.5804
F    1.7850    3.0399    1.3326
F    3.6441    1.7172    1.2154
F    2.7232    2.5654   -0.6956
C    0.2807    0.8729    0.9478
C   -0.5373   -0.2508    0.8382
N   -1.8274   -0.1948    1.3588
C   -2.9015   -1.0931    0.9426
C   -3.3237   -0.7595   -0.4896
C   -3.9344    0.6178   -0.5253
C   -3.1552    1.7111   -0.8545
C   -3.7154    2.9744   -0.8872
C   -5.0550    3.1443   -0.5912
C   -5.8344    2.0509   -0.2630
C   -5.2752    0.7870   -0.2345
N   -2.4058   -2.4832    1.0020
S   -1.0664   -2.8186    0.0655
O   -0.3832   -3.8931    0.6964
O   -1.5084   -2.8551   -1.2845
C   -0.0351   -1.3923    0.2283
C    1.2553   -1.4187   -0.2582
H    5.2928    0.5660    0.6580
H    4.7499   -0.9217    1.2191
H   -0.0969    1.7699    1.4160
H   -2.0229    0.4749    2.0327
H   -3.7544   -0.9778    1.6115
H   -2.4505   -0.7867   -1.1415
H   -4.0558   -1.4906   -0.8323
H   -2.1086    1.5783   -1.0857
H   -3.1065    3.8287   -1.1437
H   -5.4925    4.1314   -0.6161
H   -6.8809    2.1837   -0.0314
H   -5.8841   -0.0673    0.0220
H   -2.8323   -3.1592    1.5516
H    1.6363   -2.3126   -0.7295


