%nprocshared=4
%mem=100MW
%chk=HDZGCSFEDULWCS-UHFFFAOYSA-N.chk
#b3lyp/6-31+G(d) opt freq

gas opt

0 1
N    0.0137   -0.5471   -0.1152
N   -1.1746    0.2679    0.0794
C    1.2338    0.2580    0.0299
H    0.0213   -1.3325    0.5182
H   -1.1821    1.0533   -0.5540
H   -2.0126   -0.2851   -0.0202
H    1.2325    1.0567   -0.7119
H    1.2668    0.6908    1.0297
H    2.1076   -0.3761   -0.1206


