%nprocshared=4
%mem=100MW
%chk=HHMCAJWVGYGUEF-UHFFFAOYSA-N.chk
#b3lyp/6-31+G(d) opt freq

gas opt

0 1
F    4.3961   -1.9905    1.3237
C    4.0210   -1.7192    0.0035
F    5.0637   -1.0538   -0.6502
F    3.7461   -2.9201   -0.6594
C    2.7899   -0.8500   -0.0004
C    2.9172    0.5270    0.0026
C    1.7905    1.3259   -0.0009
N    1.9274    2.7997    0.0023
O    3.0340    3.3085    0.0082
O    0.9335    3.5037   -0.0008
C    0.5299    0.7455   -0.0080
O   -0.5802    1.5292   -0.0120
C   -1.7933    0.9170   -0.0075
C   -2.4130    0.6111    1.1957
C   -3.6462   -0.0113    1.1974
C   -4.2631   -0.3294    0.0015
N   -5.5845   -0.9963    0.0064
O   -6.1276   -1.2644    1.0631
O   -6.1289   -1.2770   -1.0465
C   -3.6479   -0.0252   -1.1989
C   -2.4171    0.6019   -1.2062
C    0.4050   -0.6362   -0.0115
C    1.5353   -1.4307   -0.0128
H    3.8984    0.9782    0.0082
H   -1.9314    0.8590    2.1300
H   -4.1288   -0.2500    2.1336
H   -4.1319   -0.2748   -2.1316
H   -1.9372    0.8396   -2.1441
H   -0.5748   -1.0903   -0.0166
H    1.4387   -2.5064   -0.0155


