%nprocshared=4
%mem=100MW
%chk=HKOOXMFOFWEVGF-UHFFFAOYSA-N.chk
#b3lyp/6-31+G(d) opt freq

gas opt

0 1
N   -1.8104    0.5829    0.0138
N   -2.7363   -0.4213    0.0272
C   -0.4477    0.2764    0.0072
C    0.4952    1.2964   -0.0064
C    1.8418    0.9898   -0.0124
C    2.2518   -0.3308   -0.0049
C    1.3158   -1.3487    0.0086
C   -0.0323   -1.0491    0.0200
H   -2.0993    1.5089    0.0049
H   -3.6739   -0.0486    0.0305
H   -2.5997   -1.0495   -0.7505
H    0.1756    2.3280   -0.0126
H    2.5754    1.7823   -0.0233
H    3.3055   -0.5678   -0.0100
H    1.6395   -2.3790    0.0144
H   -0.7628   -1.8445    0.0309


