%nprocshared=4
%mem=100MW
%chk=HKPHPIREJKHECO-UHFFFAOYSA-N.chk
#b3lyp/6-31+G(d) opt freq

gas opt

0 1
Cl    2.6576   -3.1908    0.5902
C    2.1107   -1.4733    0.5483
C    1.1951   -1.2663   -0.6307
O    1.0358   -2.1568   -1.4385
N    0.5534   -0.0915   -0.7874
C   -0.3854    0.0879   -1.8977
O   -1.6097   -0.5863   -1.6000
C   -2.5637    0.2204   -0.9065
C   -3.8299   -0.5979   -0.6457
C   -4.8515    0.2659    0.0968
C   -6.1177   -0.5524    0.3576
C    0.7838    0.9568    0.1103
C    0.0363    1.0508    1.2769
C   -1.0242    0.0234    1.5781
C   -0.4826   -0.9865    2.5919
C    0.2661    2.0868    2.1610
C    1.2393    3.0297    1.8855
C    1.9851    2.9391    0.7245
C    1.7643    1.9021   -0.1606
C    2.5775    1.8042   -1.4256
C    1.8184    2.4738   -2.5729
H    1.5760   -1.2397    1.4689
H    2.9770   -0.8183    0.4550
H   -0.5812    1.1507   -2.0398
H    0.0458   -0.3271   -2.8087
H   -2.1407    0.5479    0.0432
H   -2.8124    1.0913   -1.5130
H   -4.2530   -0.9254   -1.5954
H   -3.5813   -1.4687   -0.0392
H   -4.4285    0.5933    1.0465
H   -5.1002    1.1367   -0.5097
H   -6.5407   -0.8799   -0.5921
H   -5.8690   -1.4233    0.9641
H   -6.8454    0.0629    0.8866
H   -1.9026    0.5185    1.9923
H   -1.2988   -0.4954    0.6597
H    0.1681   -1.6981    2.0836
H    0.0839   -0.4613    3.3608
H   -1.3138   -1.5196    3.0533
H   -0.3152    2.1607    3.0682
H    1.4171    3.8388    2.5784
H    2.7442    3.6773    0.5121
H    3.5347    2.3053   -1.2819
H    2.7491    0.7551   -1.6669
H    1.7206    3.5403   -2.3703
H    2.3664    2.3297   -3.5041
H    0.8275    2.0285   -2.6618


