%nprocshared=4
%mem=100MW
%chk=HLQDGCWIOSOMDP-UHFFFAOYSA-N.chk
#b3lyp/6-31+G(d) opt freq

gas opt

0 1
Cl    1.9473   -2.5308    0.1352
C    1.1906   -0.9706    0.0518
C    1.9692    0.1733   -0.0115
Cl    3.7003    0.0430   -0.0073
C    1.3708    1.4207   -0.0787
Cl    2.3534    2.8497   -0.1589
C   -0.0061    1.5298   -0.0824
C   -0.7941    0.3827   -0.0184
C   -0.1880   -0.8718    0.0429
Cl   -1.1632   -2.3058    0.1222
C   -2.2736    0.4950   -0.0222
C   -3.0310   -0.2738   -0.9036
C   -4.4069   -0.1653   -0.9028
C   -5.0341    0.7046   -0.0292
C   -4.2871    1.4704    0.8477
C   -2.9110    1.3654    0.8597
H   -0.4713    2.5031   -0.1344
H   -2.5423   -0.9531   -1.5864
H   -4.9949   -0.7605   -1.5858
H   -6.1110    0.7863   -0.0319
H   -4.7820    2.1483    1.5274
H   -2.3288    1.9636    1.5450


