%nprocshared=4
%mem=100MW
%chk=HLZKNKRTKFSKGZ-UHFFFAOYSA-N.chk
#b3lyp/6-31+G(d) opt freq

gas opt

0 1
O    8.5878   -0.3721   -0.0000
C    7.4226    0.4551    0.0000
C    6.1717   -0.4259   -0.0000
C    4.9241    0.4598    0.0000
C    3.6732   -0.4213   -0.0000
C    2.4256    0.4644    0.0000
C    1.1748   -0.4166   -0.0000
C   -0.0728    0.4690    0.0000
C   -1.3237   -0.4120    0.0000
C   -2.5713    0.4736   -0.0000
C   -3.8222   -0.4074    0.0000
C   -5.0698    0.4783   -0.0000
C   -6.3207   -0.4028    0.0000
C   -7.5683    0.4829   -0.0000
C   -8.8191   -0.3981    0.0000
H    9.4199    0.1206    0.0000
H    7.4238    1.0844    0.8900
H    7.4238    1.0844   -0.8900
H    6.1706   -1.0552   -0.8900
H    6.1706   -1.0552    0.8900
H    4.9253    1.0891    0.8900
H    4.9253    1.0891   -0.8900
H    3.6721   -1.0506   -0.8900
H    3.6721   -1.0506    0.8900
H    2.4268    1.0937    0.8900
H    2.4268    1.0937   -0.8900
H    1.1736   -1.0460   -0.8900
H    1.1736   -1.0460    0.8900
H   -0.0717    1.0983    0.8900
H   -0.0717    1.0983   -0.8900
H   -1.3249   -1.0413   -0.8900
H   -1.3249   -1.0413    0.8900
H   -2.5701    1.1030    0.8900
H   -2.5701    1.1030   -0.8900
H   -3.8233   -1.0367   -0.8900
H   -3.8233   -1.0367    0.8900
H   -5.0686    1.1076    0.8900
H   -5.0686    1.1076   -0.8900
H   -6.3218   -1.0321   -0.8900
H   -6.3218   -1.0321    0.8900
H   -7.5671    1.1122    0.8900
H   -7.5671    1.1122   -0.8900
H   -8.8203   -1.0274   -0.8900
H   -8.8203   -1.0274    0.8900
H   -9.7079    0.2328   -0.0000


