%nprocshared=4
%mem=100MW
%chk=HRVUKLBFRPWXPJ-UHFFFAOYSA-N.chk
#b3lyp/6-31+G(d) opt freq

gas opt

0 1
Cl    1.7783   -2.6249   -0.0002
C    1.4181   -0.9267    0.0004
C    2.4477    0.0002    0.0004
Cl    4.0982   -0.5380    0.0004
C    2.1629    1.3533   -0.0001
C    0.8480    1.7868    0.0003
Cl    0.4943    3.4864   -0.0003
C   -0.1856    0.8639    0.0008
O   -1.4787    1.2876    0.0007
C   -2.4912    0.3794    0.0008
C   -2.2045   -0.9827    0.0008
O   -0.9120   -1.4060    0.0009
C    0.1006   -0.4974   -0.0049
C   -3.2369   -1.9052    0.0004
C   -4.5510   -1.4718   -0.0001
C   -4.8356   -0.1198   -0.0007
C   -3.8080    0.8069    0.0002
H    2.9678    2.0734   -0.0005
H   -3.0167   -2.9625    0.0001
H   -5.3559   -2.1919   -0.0004
H   -5.8626    0.2146   -0.0018
H   -4.0331    1.8632   -0.0002


