%nprocshared=4
%mem=100MW
%chk=HSFWRNGVRCDJHI-UHFFFAOYSA-N.chk
#b3lyp/6-31+G(d) opt freq

gas opt

0 1
C   -0.5870   -0.0000   -0.0000
C    0.5870    0.0000    0.0000
H   -1.6370   -0.0000   -0.0000
H    1.6370   -0.0000   -0.0000


