%nprocshared=4
%mem=100MW
%chk=HWWYDZCSSYKIAD-UHFFFAOYSA-N.chk
#b3lyp/6-31+G(d) opt freq

gas opt

0 1
C    2.5118    1.0267    0.0009
C    1.1911    0.3009    0.0008
C    0.0000    1.0106    0.0002
C   -1.1911    0.3009    0.0002
C   -2.5118    1.0267   -0.0010
C   -1.1518   -1.0806    0.0010
N   -0.0000   -1.7227    0.0020
C    1.1518   -1.0806   -0.0042
H    2.8299    1.2022    1.0285
H    3.2590    0.4214   -0.5125
H    2.4017    1.9814   -0.5135
H    0.0000    2.0906   -0.0000
H   -2.8297    1.2008   -1.0289
H   -3.2591    0.4221    0.5130
H   -2.4018    1.9821    0.5121
H   -2.0752   -1.6408    0.0010
H    2.0752   -1.6408   -0.0031


