%nprocshared=4
%mem=100MW
%chk=HYJSGOXICXYZGS-UHFFFAOYSA-N.chk
#b3lyp/6-31+G(d) opt freq

gas opt

0 1
Cl   -1.2099   -2.1531   -0.5779
C    0.3919   -1.6086   -0.1887
C    0.6719   -0.2325   -0.1682
N   -0.1922    0.8165   -0.4285
C   -1.5925    0.5630   -0.7766
C   -2.3963    0.3700    0.4834
O   -1.8551    0.4372    1.5616
O   -3.7136    0.1233    0.4080
C    0.2771    2.0659   -0.3553
O   -0.3446    3.0936   -0.5525
S    1.9865    1.9236    0.0871
C    1.9732    0.1558    0.1500
C    2.9569   -0.7744    0.4360
C    2.6589   -2.1229    0.4100
C    1.3719   -2.5298    0.1019
H   -1.9880    1.4126   -1.3333
H   -1.6574   -0.3355   -1.3902
H   -4.1869    0.0065    1.2431
H    3.9567   -0.4464    0.6791
H    3.4226   -2.8536    0.6320
H    1.1364   -3.5836    0.0809


