%nprocshared=4
%mem=100MW
%chk=IAIWVQXQOWNYOU-UHFFFAOYSA-N.chk
#b3lyp/6-31+G(d) opt freq

gas opt

0 1
O   -4.6253    0.6473   -0.0015
N   -3.3414    0.9408   -0.0018
O   -2.9536    2.1994    0.0030
C   -2.3304   -0.1480   -0.0015
O   -1.0074    0.0364   -0.0013
C   -0.3849   -1.1654   -0.0010
C    0.9774   -1.3866   -0.0003
N    1.8242   -0.3493   -0.0004
N    3.0975   -0.5561    0.0002
C    3.9498    0.4879    0.0002
O    5.1488    0.2932    0.0007
N    3.4717    1.7481   -0.0006
C   -1.4441   -2.1941   -0.0010
C   -2.6253   -1.5137    0.0048
H    1.3605   -2.3964    0.0003
H    3.4415   -1.4630    0.0008
H    2.5143    1.9036   -0.0011
H    4.0851    2.4995   -0.0006
H   -1.3104   -3.2658   -0.0011
H   -3.6124   -1.9519    0.0064


