%nprocshared=4
%mem=100MW
%chk=IFLREYGFSNHWGE-UHFFFAOYSA-N.chk
#b3lyp/6-31+G(d) opt freq

gas opt

0 1
C    0.0000    0.7340   -0.0015
C   -0.0000   -0.7356   -0.0010
C    1.2140   -1.4352   -0.0004
C    2.4144   -0.7344   -0.0003
C    2.4142    0.7339   -0.0008
C    1.2136    1.4342   -0.0015
C    3.6534    1.4124   -0.0002
C    4.8074    0.6989    0.0009
C    4.8077   -0.6974    0.0008
C    3.6543   -1.4118    0.0007
C   -1.2141   -1.4352   -0.0006
C   -2.4144   -0.7344   -0.0006
C   -2.4142    0.7339   -0.0011
C   -1.2136    1.4342    0.0039
C   -3.6534    1.4124   -0.0007
C   -4.8074    0.6989    0.0002
C   -4.8077   -0.6974    0.0011
C   -3.6543   -1.4118    0.0003
H    1.2171   -2.5152    0.0003
H    1.2162    2.5142   -0.0016
H    3.6820    2.4920   -0.0008
H    5.7507    1.2248    0.0013
H    5.7514   -1.2227    0.0013
H    3.6838   -2.4914    0.0014
H   -1.2171   -2.5152   -0.0006
H   -1.2162    2.5142    0.0038
H   -3.6820    2.4920   -0.0007
H   -5.7507    1.2248    0.0005
H   -5.7514   -1.2227    0.0026
H   -3.6838   -2.4914    0.0007


