%nprocshared=4
%mem=100MW
%chk=IJFPVINAQGWBRJ-UHFFFAOYSA-N.chk
#b3lyp/6-31+G(d) opt freq

gas opt

0 1
O    1.1162    1.2307   -1.7179
C    1.5042    1.8116   -0.7244
O    2.6593    1.4437   -0.1370
C    3.3877    0.3451   -0.7458
C    4.6630    0.0731    0.0545
C    5.4306   -1.0845   -0.5871
C    6.7059   -1.3565    0.2132
C    7.4735   -2.5141   -0.4284
C    8.7488   -2.7861    0.3719
C    8.3770   -3.2744    1.7734
C    9.5778   -3.8581   -0.3384
C    0.7119    2.9266   -0.1632
C   -0.6407    2.7334    0.1770
C   -1.2774    1.4144   -0.0248
O   -0.6081    0.4650   -0.3795
O   -2.5997    1.2656    0.1847
C   -3.1568   -0.0575   -0.0329
C   -4.6597   -0.0313    0.2527
C   -5.2467   -1.4255    0.0234
C   -6.7496   -1.3993    0.3089
C   -7.3367   -2.7934    0.0797
C   -8.8396   -2.7673    0.3652
C   -9.5364   -1.8622   -0.6528
C   -9.4039   -4.1853    0.2574
C   -1.3748    3.7918    0.7049
C   -0.7749    5.0235    0.8923
C    0.5538    5.2132    0.5581
C    1.3002    4.1722    0.0375
H    2.7629   -0.5480   -0.7483
H    3.6508    0.6073   -1.7706
H    5.2878    0.9662    0.0569
H    4.3999   -0.1891    1.0792
H    4.8058   -1.9777   -0.5896
H    5.6937   -0.8223   -1.6119
H    7.3307   -0.4634    0.2157
H    6.4428   -1.6187    1.2380
H    6.8487   -3.4073   -0.4309
H    7.7366   -2.2519   -1.4531
H    9.3316   -1.8683    0.4497
H    7.7942   -4.1922    1.6957
H    9.2856   -3.4682    2.3436
H    7.7864   -2.5107    2.2795
H    9.8427   -3.5102   -1.3369
H   10.4864   -4.0518    0.2317
H    8.9950   -4.7759   -0.4162
H   -2.9886   -0.3569   -1.0674
H   -2.6724   -0.7700    0.6349
H   -4.8278    0.2681    1.2872
H   -5.1440    0.6812   -0.4151
H   -5.0786   -1.7249   -1.0111
H   -4.7624   -2.1379    0.6911
H   -6.9177   -1.0999    1.3434
H   -7.2339   -0.6868   -0.3588
H   -7.1685   -3.0928   -0.9548
H   -6.8523   -3.5059    0.7474
H   -9.0117   -2.3831    1.3706
H   -9.3642   -2.2464   -1.6582
H  -10.6071   -1.8436   -0.4494
H   -9.1343   -0.8520   -0.5760
H   -8.9075   -4.8300    0.9826
H  -10.4746   -4.1666    0.4608
H   -9.2318   -4.5694   -0.7481
H   -2.4128    3.6511    0.9678
H   -1.3476    5.8425    1.3018
H    1.0122    6.1795    0.7083
H    2.3371    4.3276   -0.2212


