%nprocshared=4
%mem=100MW
%chk=IMNFDUFMRHMDMM-UHFFFAOYSA-N.chk
#b3lyp/6-31+G(d) opt freq

gas opt

0 1
C   -0.0000   -0.5124    0.0000
C   -1.2492    0.3710   -0.0000
C   -2.4985   -0.5124    0.0000
C   -3.7477    0.3710   -0.0000
C    1.2492    0.3710    0.0000
C    2.4985   -0.5124   -0.0000
C    3.7477    0.3710    0.0000
H   -0.0000   -1.1417    0.8900
H    0.0000   -1.1417   -0.8900
H   -1.2492    1.0003    0.8900
H   -1.2492    1.0003   -0.8900
H   -2.4985   -1.1417   -0.8900
H   -2.4985   -1.1417    0.8900
H   -3.7477    1.0003   -0.8900
H   -4.6377   -0.2584   -0.0000
H   -3.7477    1.0003    0.8900
H    1.2492    1.0003   -0.8900
H    1.2492    1.0003    0.8900
H    2.4985   -1.1417    0.8900
H    2.4985   -1.1417   -0.8900
H    3.7477    1.0003   -0.8900
H    3.7477    1.0003    0.8900
H    4.6377   -0.2584   -0.0000


