%nprocshared=4
%mem=100MW
%chk=IMWQMZMZPWIQBE-UHFFFAOYSA-N.chk
#b3lyp/6-31+G(d) opt freq

gas opt

0 1
O   -4.5111   -1.0054   -0.0018
C   -3.2968   -0.9429   -0.0015
N   -2.6838    0.2574   -0.0008
N   -1.2846    0.3294   -0.0005
C   -0.6928    1.4883    0.0002
C    0.7680    1.5634    0.0005
N    1.4756    0.4715   -0.0000
N    2.8748    0.5435    0.0002
C    3.6078   -0.5875   -0.0003
O    4.8221   -0.5250   -0.0001
N    2.9948   -1.7878   -0.0011
C   -1.5124    2.7529    0.0008
N   -2.5638   -2.0739    0.0035
H   -3.2113    1.0714   -0.0004
H    1.2592    2.5253    0.0011
H    3.3160    1.4074    0.0008
H    2.0260   -1.8377   -0.0012
H    3.5223   -2.6018   -0.0014
H   -1.7101    3.0572    1.0286
H   -0.9630    3.5421   -0.5125
H   -2.4568    2.5741   -0.5132
H   -3.0050   -2.9377    0.0070
H   -1.5951   -2.0240    0.0037


