%nprocshared=4
%mem=100MW
%chk=IOUNQDKNJZEDEP-UHFFFAOYSA-N.chk
#b3lyp/6-31+G(d) opt freq

gas opt

0 1
Cl    6.4121   -0.9904   -0.9545
C    4.8092   -0.5256   -0.4767
C    4.5411    0.7926   -0.1574
C    3.2620    1.1647    0.2241
O    2.7135    2.3504    0.5861
C    1.4135    2.1681    0.8660
O    0.6429    3.0392    1.2211
N    1.0945    0.8702    0.6925
C   -0.2253    0.2677    0.8956
S   -1.2128    0.4516   -0.6149
P   -3.0893   -0.3643   -0.0602
S   -3.7080    0.4892    1.4765
O   -4.1441   -0.1463   -1.2568
C   -4.7424    1.1188   -1.5460
C   -5.6907    0.9739   -2.7380
O   -2.9249   -1.9394    0.2300
C   -1.8574   -2.4796    1.0115
C   -2.0738   -3.9823    1.2009
C    2.2510    0.2054    0.2838
C    2.5266   -1.1141   -0.0372
C    3.8033   -1.4757   -0.4224
H    5.3276    1.5313   -0.2050
H   -0.1097   -0.7910    1.1274
H   -0.7296    0.7677    1.7225
H   -5.3020    1.4633   -0.6764
H   -3.9637    1.8424   -1.7871
H   -5.1311    0.6293   -3.6076
H   -6.4694    0.2503   -2.4969
H   -6.1470    1.9388   -2.9586
H   -0.9103   -2.3105    0.4991
H   -1.8362   -1.9900    1.9852
H   -2.0080   -4.4834    0.2351
H   -1.3085   -4.3783    1.8685
H   -3.0589   -4.1559    1.6339
H    1.7443   -1.8572    0.0092
H    4.0193   -2.5037   -0.6733


