%nprocshared=4
%mem=100MW
%chk=IPEHBUMCGVEMRF-UHFFFAOYSA-N.chk
#b3lyp/6-31+G(d) opt freq

gas opt

0 1
O    2.2283   -1.1420    0.0023
C    1.6611   -0.0674    0.0022
N    2.3788    1.0734   -0.0028
C    0.1807   -0.0111    0.0013
N   -0.4422    1.1643    0.0012
C   -1.7591    1.2105    0.0004
C   -2.4971    0.0353    0.0002
N   -1.8835   -1.1346    0.0008
C   -0.5635   -1.1898   -0.0052
H    3.3481    1.0366   -0.0062
H    1.9261    1.9313   -0.0029
H   -2.2650    2.1647    0.0003
H   -3.5763    0.0772   -0.0000
H   -0.0620   -2.1463   -0.0050


