%nprocshared=4
%mem=100MW
%chk=IQUPABOKLQSFBK-UHFFFAOYSA-N.chk
#b3lyp/6-31+G(d) opt freq

gas opt

0 1
O    2.2029   -1.4007   -0.0042
N    1.6261   -0.3279    0.0062
O    2.2668    0.7079    0.0128
C    0.1468   -0.2830    0.0047
C   -0.5108    0.9387    0.0166
O    0.2024    2.0955    0.0292
C   -1.8974    0.9774    0.0153
C   -2.6202   -0.2001    0.0021
C   -1.9626   -1.4160   -0.0093
C   -0.5803   -1.4572   -0.0142
H    0.4096    2.4393   -0.8506
H   -2.4116    1.9271    0.0249
H   -3.6998   -0.1705    0.0010
H   -2.5294   -2.3353   -0.0189
H   -0.0689   -2.4084   -0.0234


