%nprocshared=4
%mem=100MW
%chk=IRIAEXORFWYRCZ-UHFFFAOYSA-N.chk
#b3lyp/6-31+G(d) opt freq

gas opt

0 1
O    1.9150   -0.1498   -1.6038
C    2.2385    0.4929   -0.6253
O    3.3362    0.1473    0.0747
C    4.0841   -1.0040   -0.3980
C    5.2875   -1.2410    0.5166
C    6.0756   -2.4541    0.0185
C    7.2790   -2.6911    0.9332
C    1.4310    1.6583   -0.2062
C    0.0521    1.5131    0.0395
C   -0.5970    0.1944   -0.1202
O    0.0757   -0.7891   -0.3550
O   -1.9345    0.0838   -0.0052
C   -2.5033   -1.2415   -0.1740
C   -3.9999   -1.1702   -0.0120
C   -4.8038   -0.9375   -1.1122
C   -6.1766   -0.8721   -0.9637
C   -6.7455   -1.0398    0.2850
C   -5.9416   -1.2734    1.3850
C   -4.5691   -1.3432    1.2358
C   -0.6960    2.6187    0.4340
C   -0.0845    3.8499    0.5824
C    1.2701    3.9925    0.3411
C    2.0303    2.9045   -0.0464
H    3.4411   -1.8841   -0.3878
H    4.4312   -0.8193   -1.4146
H    5.9305   -0.3609    0.5065
H    4.9404   -1.4256    1.5333
H    5.4326   -3.3342    0.0287
H    6.4227   -2.2695   -0.9981
H    6.9319   -2.8758    1.9498
H    7.8405   -3.5554    0.5783
H    7.9220   -1.8110    0.9230
H   -2.2629   -1.6160   -1.1690
H   -2.0882   -1.9134    0.5772
H   -4.3594   -0.8064   -2.0878
H   -6.8046   -0.6895   -1.8231
H   -7.8179   -0.9880    0.4011
H   -6.3860   -1.4042    2.3606
H   -3.9410   -1.5257    2.0952
H   -1.7541    2.5149    0.6238
H   -0.6681    4.7056    0.8883
H    1.7375    4.9589    0.4597
H    3.0874    3.0233   -0.2331


