%nprocshared=4
%mem=100MW
%chk=ISEUFVQQFVOBCY-UHFFFAOYSA-N.chk
#b3lyp/6-31+G(d) opt freq

gas opt

0 1
O   -0.0599   -2.7496    0.2375
C   -1.3663   -3.3281    0.2631
C    0.0133   -1.3999    0.1755
N    1.1973   -0.8003    0.1489
C    1.2701    0.5261    0.0879
N    2.5011    1.1492    0.0598
C    3.7280    0.3494    0.0970
C    4.0869   -0.1002   -1.3207
C    4.8693    1.1927    0.6690
N    0.1569    1.2515    0.0537
C   -1.0282    0.6503    0.0804
N   -2.1847    1.4024    0.0449
C   -3.4908    0.7394    0.0744
C   -4.5382    1.7009    0.6396
C   -3.8874    0.3306   -1.3456
N   -1.0990   -0.6765    0.1359
H   -1.9074   -2.9650    1.1369
H   -1.9060   -3.0468   -0.6412
H   -1.2821   -4.4136    0.3131
H    2.5541    2.1167    0.0153
H    3.5719   -0.5261    0.7273
H    4.2430    0.7754   -1.9509
H    4.9997   -0.6952   -1.2930
H    3.2738   -0.7009   -1.7282
H    4.6136    1.5130    1.6790
H    5.7822    0.5976    0.6967
H    5.0254    2.0682    0.0387
H   -2.1328    2.3700    0.0004
H   -3.4339   -0.1476    0.7053
H   -4.5951    2.5879    0.0087
H   -5.5099    1.2077    0.6615
H   -4.2556    1.9922    1.6512
H   -3.1413   -0.3544   -1.7483
H   -4.8592   -0.1626   -1.3237
H   -3.9443    1.2176   -1.9766


