%nprocshared=4
%mem=100MW
%chk=ITEQSCBLCCNACE-UHFFFAOYSA-N.chk
#b3lyp/6-31+G(d) opt freq

gas opt

0 1
O   -1.7881    0.1571   -1.4263
C   -2.0906   -0.0370   -0.2657
O   -1.1344   -0.3176    0.6423
C    0.1454   -0.2603    0.2213
C    0.8757   -1.3874    0.1766
C    2.2141   -1.3830   -0.2484
O    2.8400   -2.4235   -0.2787
C    2.8800   -0.0977   -0.6678
C    2.2345    1.0690    0.0869
C    2.4794    0.9065    1.5884
C    2.8430    2.3886   -0.3919
C    0.7270    1.0639   -0.1956
N   -3.3815    0.0337    0.1151
C   -4.4199    0.3447   -0.8705
C   -3.7463   -0.2003    1.5145
H    0.4218   -2.3206    0.4756
H    3.9426   -0.1428   -0.4292
H    2.7516    0.0464   -1.7405
H    3.5519    0.8983    1.7828
H    2.0195    1.7372    2.1236
H    2.0413   -0.0319    1.9285
H    2.6636    2.5048   -1.4607
H    2.3826    3.2173    0.1460
H    3.9163    2.3838   -0.2020
H    0.5565    1.2226   -1.2605
H    0.2484    1.8622    0.3717
H   -3.9614    0.4854   -1.8493
H   -5.1334   -0.4780   -0.9184
H   -4.9376    1.2579   -0.5770
H   -3.7238    0.7439    2.0586
H   -4.7497   -0.6234    1.5625
H   -3.0370   -0.8955    1.9635


