%nprocshared=4
%mem=100MW
%chk=IWDCLRJOBJJRNH-UHFFFAOYSA-N.chk
#b3lyp/6-31+G(d) opt freq

gas opt

0 1
O    2.7203   -0.0000   -0.0296
C    1.3613   -0.0000   -0.0186
C    0.6665    1.2008   -0.0144
C   -0.7149    1.1981   -0.0031
C   -1.4050    0.0000    0.0039
C   -2.9120    0.0000    0.0162
C   -0.7149   -1.1981   -0.0007
C    0.6664   -1.2008   -0.0172
H    3.1207    0.0010    0.8506
H    1.2051    2.1368   -0.0195
H   -1.2562    2.1326    0.0005
H   -3.2837   -0.0012   -1.0085
H   -3.2711   -0.8893    0.5340
H   -3.2711    0.8906    0.5319
H   -1.2563   -2.1326    0.0049
H    1.2051   -2.1369   -0.0209


