%nprocshared=4
%mem=100MW
%chk=JAYCNKDKIKZTAF-UHFFFAOYSA-N.chk
#b3lyp/6-31+G(d) opt freq

gas opt

0 1
Cl   -0.6956   -1.5772    1.4061
C   -1.4897   -0.3060    0.5302
C   -0.7392    0.7113   -0.0589
C    0.7396    0.7108    0.0608
C    1.4893   -0.3067   -0.5291
Cl    0.6944   -1.5763   -1.4065
C    2.8657   -0.3016   -0.4140
C    3.4998    0.7096    0.2850
C    2.7607    1.7205    0.8721
C    1.3851    1.7295    0.7581
C   -1.3835    1.7278   -0.7607
C   -2.7596    1.7232   -0.8694
C   -3.4994    0.7122   -0.2834
C   -2.8657   -0.3029    0.4103
H    3.4478   -1.0887   -0.8701
H    4.5762    0.7096    0.3729
H    3.2614    2.5073    1.4169
H    0.8094    2.5196    1.2172
H   -0.8073    2.5182   -1.2186
H   -3.2597    2.5111   -1.4130
H   -4.5758    0.7132   -0.3710
H   -3.4483   -1.0899    0.8659


