%nprocshared=4
%mem=100MW
%chk=JBDOSUUXMYMWQH-UHFFFAOYSA-N.chk
#b3lyp/6-31+G(d) opt freq

gas opt

0 1
S   -4.1134   -0.3120    0.0005
C   -2.6011   -0.6676    0.0003
N   -1.3843   -0.9537    0.0002
C   -0.4803    0.0078    0.0003
C    0.9594   -0.3102    0.0002
C    1.8932    0.7522    0.0003
C    1.4322    2.0823    0.0010
C    0.0807    2.3658    0.0020
C   -0.8707    1.3704   -0.0054
C    3.2673    0.4605    0.0002
C    3.6843   -0.8396   -0.0000
C    2.7670   -1.8824   -0.0006
C    1.4104   -1.6266    0.0004
H    2.1459    2.8928    0.0011
H   -0.2391    3.3973    0.0029
H   -1.9193    1.6291   -0.0047
H    3.9914    1.2618   -0.0001
H    4.7416   -1.0600   -0.0001
H    3.1184   -2.9036   -0.0011
H    0.7035   -2.4432    0.0003


