%nprocshared=4
%mem=100MW
%chk=JFCQEDHGNNZCLN-UHFFFAOYSA-N.chk
#b3lyp/6-31+G(d) opt freq

gas opt

0 1
O    2.3688   -1.2401    0.0011
C    2.4797   -0.0370    0.0018
O    3.6988    0.5247   -0.0029
C    1.2492    0.8331    0.0018
C    0.0000   -0.0503    0.0007
C   -1.2492    0.8331    0.0007
C   -2.4797   -0.0370   -0.0004
O   -2.3688   -1.2401   -0.0010
O   -3.6988    0.5247   -0.0006
H    4.4581   -0.0742   -0.0068
H    1.2488    1.4619    0.8921
H    1.2496    1.4629   -0.8878
H    0.0004   -0.6791   -0.8896
H   -0.0004   -0.6801    0.8903
H   -1.2496    1.4619    0.8910
H   -1.2488    1.4629   -0.8889
H   -4.4581   -0.0742   -0.0013


