%nprocshared=4
%mem=100MW
%chk=JFNWFXVFBDDWCX-UHFFFAOYSA-N.chk
#b3lyp/6-31+G(d) opt freq

gas opt

0 1
S    0.2538    1.1661   -1.0225
O   -0.2743    0.5418   -2.1846
O    0.6759    2.5227   -0.9927
N   -0.8978    1.0088    0.1571
C   -0.8331    1.7695    1.2678
O   -1.6308    1.6009    2.1656
C    0.2304    2.8298    1.3940
C   -1.9291    0.0939    0.0021
C   -1.9536   -1.1964    0.4476
C   -0.8835   -1.9368    1.2076
C   -3.2127   -1.6747    0.0321
C   -3.7727   -3.0550    0.2607
N   -3.7975   -0.6891   -0.5885
O   -3.1051    0.3018   -0.6110
C    1.6428    0.2018   -0.5273
C    1.7311   -1.1255   -0.9049
C    2.8184   -1.8842   -0.5185
C    3.8242   -1.3125    0.2504
N    4.9256   -2.0768    0.6426
C    3.7324    0.0212    0.6280
C    2.6451    0.7756    0.2334
H   -0.1421    3.7686    0.9843
H    0.4835    2.9671    2.4453
H    1.1190    2.5204    0.8438
H   -1.0576   -1.8291    2.2782
H   -0.9120   -2.9929    0.9394
H    0.0932   -1.5241    0.9550
H   -4.3199   -3.0735    1.2033
H   -4.4468   -3.3134   -0.5559
H   -2.9565   -3.7763    0.3002
H    0.9486   -1.5695   -1.5024
H    2.8865   -2.9209   -0.8134
H    4.9887   -3.0079    0.3781
H    5.6273   -1.6764    1.1795
H    4.5126    0.4687    1.2258
H    2.5732    1.8127    0.5263


