%nprocshared=4
%mem=100MW
%chk=JFSPBVWPKOEZCB-UHFFFAOYSA-N.chk
#b3lyp/6-31+G(d) opt freq

gas opt

0 1
O   -0.1414   -1.3012   -0.3176
C   -0.4548   -0.1473   -0.0955
N    0.4987    0.7945    0.0473
C    1.8485    0.4282    0.0503
C    2.8034    1.2855   -0.4806
C    4.1355    0.9208   -0.4762
C    4.5188   -0.2965    0.0561
C    3.5704   -1.1527    0.5851
C    2.2375   -0.7913    0.5894
C   -1.8773    0.2223    0.0115
C   -2.9557   -0.6042   -0.1123
C   -2.9046   -2.0849   -0.3878
O   -4.0652    0.1227    0.0523
C   -3.7645    1.4103    0.2826
C   -2.4308    1.5576    0.2803
H    0.2488    1.7263    0.1481
H    2.5046    2.2363   -0.8969
H    4.8785    1.5869   -0.8893
H    5.5611   -0.5794    0.0584
H    3.8730   -2.1029    0.9998
H    1.4973   -1.4604    1.0027
H   -2.8649   -2.6289    0.5559
H   -3.7951   -2.3824   -0.9415
H   -2.0168   -2.3144   -0.9771
H   -4.4815    2.2008    0.4480
H   -1.8773    2.4716    0.4368


