%nprocshared=4
%mem=100MW
%chk=JHIVVAPYMSGYDF-UHFFFAOYSA-N.chk
#b3lyp/6-31+G(d) opt freq

gas opt

0 1
O   -2.1679   -0.0015    0.3208
C   -1.0383   -0.0004   -0.1061
C   -0.3133    1.2990   -0.3784
C    1.0500    1.2517    0.3196
C    1.8077    0.0011   -0.1293
C    1.0513   -1.2514    0.3165
C   -0.3099   -1.2983   -0.3762
H   -0.1708    1.4206   -1.4522
H   -0.8964    2.1326    0.0131
H    1.6247    2.1394    0.0553
H    0.9046    1.2207    1.3994
H    1.8978    0.0025   -1.2156
H    2.8027    0.0011    0.3157
H    1.6269   -2.1378    0.0500
H    0.9059   -1.2232    1.3963
H   -0.8907   -2.1340    0.0142
H   -0.1700   -1.4165   -1.4507


