%nprocshared=4
%mem=100MW
%chk=JIGUQPWFLRLWPJ-UHFFFAOYSA-N.chk
#b3lyp/6-31+G(d) opt freq

gas opt

0 1
O   -0.6752   -1.2835    0.0009
C   -0.5646   -0.0732    0.0033
O    0.6592    0.4918    0.0024
C    1.8000   -0.4065   -0.0015
C    3.0931    0.4113   -0.0020
C   -1.7652    0.7743    0.0010
C   -2.9734    0.2165   -0.0036
H    1.7691   -1.0369    0.8872
H    1.7660   -1.0331   -0.8927
H    3.1240    1.0416   -0.8907
H    3.1271    1.0379    0.8893
H    3.9494   -0.2631   -0.0049
H   -1.6669    1.8498    0.0031
H   -3.0717   -0.8590   -0.0057
H   -3.8557    0.8393   -0.0053


