%nprocshared=4
%mem=100MW
%chk=JIVPVXMEBJLZRO-UHFFFAOYSA-N.chk
#b3lyp/6-31+G(d) opt freq

gas opt

0 1
Cl   -3.8683   -1.6415    0.3096
C   -2.2235   -1.2851   -0.1161
C   -1.7588    0.0168   -0.0535
S   -2.8363    1.3133    0.4591
O   -3.4669    0.8636    1.6505
O   -2.0817    2.5150    0.3851
N   -4.0294    1.4393   -0.6825
C   -0.4494    0.2998   -0.3926
C    0.3962   -0.7174   -0.7948
C    1.8239   -0.4080   -1.1649
O    2.2451   -1.2489   -2.2408
N    1.9511    1.0027   -1.5479
C    2.8111    1.6031   -0.7073
O    3.1302    2.7749   -0.7597
C    3.3126    0.6364    0.2882
C    2.7234   -0.6052    0.0297
C    3.0209   -1.6926    0.8174
C    3.9082   -1.5602    1.8727
C    4.4964   -0.3364    2.1376
C    4.2061    0.7615    1.3532
C   -0.0672   -2.0181   -0.8571
C   -1.3753   -2.3033   -0.5126
H   -4.9149    1.7419   -0.4273
H   -3.8426    1.2104   -1.6065
H   -0.0866    1.3159   -0.3437
H    1.7127   -1.1576   -3.0429
H    1.4904    1.4314   -2.2861
H    2.5626   -2.6491    0.6135
H    4.1412   -2.4146    2.4908
H    5.1872   -0.2394    2.9621
H    4.6682    1.7147    1.5637
H    0.5939   -2.8124   -1.1710
H   -1.7373   -3.3197   -0.5614


