%nprocshared=4
%mem=100MW
%chk=JLYXXMFPNIAWKQ-UHFFFAOYSA-N.chk
#b3lyp/6-31+G(d) opt freq

gas opt

0 1
Cl    0.2719    1.4166    1.1940
C    0.2719    1.4166   -0.6090
C    1.3628    0.4728   -1.1190
Cl    2.9688    1.0300   -0.5180
C    1.0909   -0.9438   -0.6090
Cl    1.0909   -0.9438    1.1940
C   -0.2719   -1.4166   -1.1190
Cl   -0.5923   -3.0860   -0.5180
C   -1.3628   -0.4728   -0.6090
Cl   -1.3628   -0.4728    1.1940
C   -1.0909    0.9438   -1.1190
Cl   -2.3764    2.0560   -0.5180
H    0.4656    2.4259   -0.9724
H    1.3628    0.4728   -2.2090
H    1.8681   -1.6162   -0.9724
H   -0.2719   -1.4166   -2.2090
H   -2.3337   -0.8097   -0.9724
H   -1.0909    0.9438   -2.2090


