%nprocshared=4
%mem=100MW
%chk=JMMWKPVZQRWMSS-UHFFFAOYSA-N.chk
#b3lyp/6-31+G(d) opt freq

gas opt

0 1
O   -1.2399   -0.9563    0.7916
C   -1.2237    0.0101    0.0666
O   -0.0533    0.5618   -0.2904
C    1.1528   -0.0552    0.2320
C    1.6329   -1.1375   -0.7372
C    2.2421    1.0075    0.3898
C   -2.5174    0.5924   -0.4418
H    0.9403   -0.5045    1.2020
H    2.5383   -1.6007   -0.3451
H    0.8568   -1.8946   -0.8497
H    1.8454   -0.6882   -1.7073
H    1.9001    1.7785    1.0803
H    3.1475    0.5443    0.7819
H    2.4547    1.4568   -0.5802
H   -2.8744    1.3494    0.2566
H   -2.3519    1.0480   -1.4181
H   -3.2615   -0.1989   -0.5315


