%nprocshared=4
%mem=100MW
%chk=JOFWLTCLBGQGBO-UHFFFAOYSA-N.chk
#b3lyp/6-31+G(d) opt freq

gas opt

0 1
Cl   -3.0358   -1.8783    1.4426
C   -3.0336   -0.9512   -0.0251
C   -1.8372   -0.4308   -0.5224
C   -0.5661   -0.6675    0.1998
N   -0.4106   -1.8456    0.6988
C    0.7897   -2.2140    1.4569
C    1.9772   -2.0630    0.5400
N    2.3448   -0.9133   -0.0783
C    3.4244   -1.2241   -0.8432
C    4.1793   -0.2893   -1.7527
N    3.6829   -2.4896   -0.6384
N    2.8275   -2.9841    0.1876
C    1.7405    0.3335    0.0854
C    0.3637    0.4663    0.2543
C   -0.1729    1.7435    0.4739
C    0.6435    2.8525    0.4867
Cl   -0.0377    4.4259    0.7591
C    2.0071    2.7159    0.2833
C    2.5506    1.4642    0.0811
C   -1.8443    0.3125   -1.7024
C   -3.0316    0.5293   -2.3711
C   -4.2143    0.0117   -1.8736
C   -4.2144   -0.7313   -0.7069
H    0.9007   -1.5534    2.3168
H    0.7115   -3.2481    1.7926
H    4.9846    0.1888   -1.1950
H    4.5992   -0.8532   -2.5857
H    3.5002    0.4726   -2.1353
H   -1.2348    1.8581    0.6339
H    2.6427    3.5891    0.2792
H    3.6143    1.3607   -0.0750
H   -0.9221    0.7179   -2.0920
H   -3.0378    1.1048   -3.2850
H   -5.1408    0.1848   -2.4009
H   -5.1408   -1.1330   -0.3238


