%nprocshared=4
%mem=100MW
%chk=JOMNTHCQHJPVAZ-UHFFFAOYSA-N.chk
#b3lyp/6-31+G(d) opt freq

gas opt

0 1
C    2.4374   -0.0267   -0.1073
C    0.9743   -0.0033    0.3396
N    0.3171    1.1968   -0.1965
C   -1.0970    1.2414    0.2010
C   -1.8114   -0.0059   -0.3245
N   -1.1542   -1.2061    0.2116
C    0.2599   -1.2507   -0.1859
H    2.9455    0.8627    0.2655
H    2.9246   -0.9170    0.2905
H    2.4845   -0.0426   -1.1961
H    0.9268    0.0118    1.4284
H    0.8007    2.0337    0.0931
H   -1.1683    1.2704    1.2883
H   -1.5647    2.1322   -0.2183
H   -2.8537    0.0108   -0.0061
H   -1.7636   -0.0208   -1.4133
H   -1.2494   -1.2528    1.2150
H    0.3312   -1.2797   -1.2732
H    0.7276   -2.1414    0.2334


