%nprocshared=4
%mem=100MW
%chk=JOYRKODLDBILNP-UHFFFAOYSA-N.chk
#b3lyp/6-31+G(d) opt freq

gas opt

0 1
O   -1.1568   -1.2115   -0.0001
C   -0.9926   -0.0075    0.0019
O    0.2536    0.5020    0.0017
C    1.3534   -0.4461   -0.0009
C    2.6815    0.3134   -0.0006
N   -2.0581    0.8179   -0.0014
H    1.2938   -1.0741    0.8881
H    1.2923   -1.0710   -0.8919
H    2.7411    0.9414   -0.8896
H    2.7426    0.9382    0.8904
H    3.5071   -0.3983   -0.0026
H   -2.9559    0.4508   -0.0053
H   -1.9270    1.7790    0.0002


