%nprocshared=4
%mem=100MW
%chk=JPLCQHHISLYGRA-UHFFFAOYSA-N.chk
#b3lyp/6-31+G(d) opt freq

gas opt

0 1
O    1.9451    1.1344    0.3165
C    2.1962    0.0635   -0.1948
N    1.1953   -0.7243   -0.6352
C   -0.1378   -0.3523   -0.4151
C   -1.1041   -1.3160   -0.1673
N   -2.3607   -0.9727    0.0412
C   -2.7482    0.2915    0.0230
O   -4.0526    0.5963    0.2431
C   -4.9420   -0.4955    0.4857
C   -1.8367    1.3109   -0.2182
C   -0.5084    0.9906   -0.4366
C    3.6278   -0.3834   -0.3430
C    4.7187    0.5583    0.1709
C    4.3963   -0.7278    0.9344
H    1.3976   -1.5487   -1.1046
H   -0.8248   -2.3590   -0.1452
H   -4.6152   -1.0405    1.3713
H   -5.9505   -0.1141    0.6455
H   -4.9388   -1.1649   -0.3746
H   -2.1599    2.3413   -0.2316
H    0.2224    1.7628   -0.6266
H    3.8476   -0.9683   -1.2362
H    5.6563    0.5926   -0.3840
H    4.4009    1.5011    0.6162
H    3.8664   -0.6311    1.8820
H    5.1218   -1.5395    0.8819


