%nprocshared=4
%mem=100MW
%chk=JRZJOMJEPLMPRA-UHFFFAOYSA-N.chk
#b3lyp/6-31+G(d) opt freq

gas opt

0 1
C   -3.8439   -0.2641   -0.2832
C   -4.7925   -0.0367    0.5912
C   -2.5810    0.5578   -0.2558
C   -1.3697   -0.3716   -0.1556
C   -0.0876    0.4628   -0.1278
C    1.1236   -0.4665   -0.0275
C    2.4058    0.3679    0.0002
C    3.6170   -0.5614    0.1005
C    4.8992    0.2730    0.1283
H   -3.9650   -1.0436   -1.0209
H   -4.6695    0.7398    1.3316
H   -5.6975   -0.6257    0.5715
H   -2.5116    1.1478   -1.1697
H   -2.5999    1.2243    0.6064
H   -1.4391   -0.9616    0.7583
H   -1.3508   -1.0381   -1.0178
H   -0.0182    1.0529   -1.0417
H   -0.1065    1.1294    0.7344
H    1.0542   -1.0565    0.8863
H    1.1425   -1.1330   -0.8898
H    2.4752    0.9579   -0.9136
H    2.3869    1.0345    0.8625
H    3.5476   -1.1514    1.0144
H    3.6359   -1.2280   -0.7617
H    4.9686    0.8630   -0.7856
H    4.8803    0.9395    0.9905
H    5.7621   -0.3891    0.1997


