%nprocshared=4
%mem=100MW
%chk=JTAGHJPZEDNHHA-UHFFFAOYSA-N.chk
#b3lyp/6-31+G(d) opt freq

gas opt

0 1
O   -0.3350   -0.8416    0.1596
C   -0.3882    0.3693    0.2017
N    0.7477    1.0921    0.2621
C    2.0468    0.4151    0.2769
C    3.1644    1.4576    0.3483
C    4.5007    0.7612    0.3635
C    5.1487    0.4855   -0.8266
C    6.3773   -0.1542   -0.8143
O    7.0160   -0.4256   -1.9839
C    6.3621   -0.0227   -3.1889
C    6.9569   -0.5181    0.3978
O    8.1631   -1.1459    0.4150
C    8.6973   -1.4898    1.6951
C    6.3025   -0.2391    1.5864
C    5.0787    0.4045    1.5673
C   -1.7244    1.0660    0.1801
N   -2.7943    0.0680    0.1065
C   -4.1299    0.4768    0.0745
C   -5.1428   -0.4679    0.0048
C   -6.4743   -0.0545   -0.0264
C   -7.5602   -1.0554   -0.1002
O   -7.2929   -2.2407   -0.1339
N   -8.8463   -0.6535   -0.1302
C   -9.9221   -1.6451   -0.2034
C   -6.7787    1.3075    0.0128
C   -5.7637    2.2396    0.0818
C   -4.4438    1.8300    0.1184
H    0.7051    2.0606    0.2957
H    2.1051   -0.2401    1.1460
H    2.1588   -0.1760   -0.6320
H    3.1061    2.1129   -0.5208
H    3.0524    2.0487    1.2572
H    4.6967    0.7687   -1.7657
H    6.2153    1.0573   -3.1791
H    6.9771   -0.2981   -4.0456
H    5.3949   -0.5202   -3.2611
H    8.0094   -2.1628    2.2069
H    9.6604   -1.9836    1.5662
H    8.8294   -0.5851    2.2886
H    6.7499   -0.5207    2.5281
H    4.5697    0.6218    2.4947
H   -1.8407    1.6569    1.0886
H   -1.7784    1.7214   -0.6891
H   -2.5755   -0.8766    0.0799
H   -4.9013   -1.5201   -0.0257
H   -9.0595    0.2924   -0.1034
H   -9.8098   -2.2366   -1.1120
H   -9.8714   -2.3010    0.6657
H  -10.8855   -1.1355   -0.2183
H   -7.8087    1.6315   -0.0111
H   -6.0013    3.2927    0.1117
H   -3.6537    2.5642    0.1727


