%nprocshared=4
%mem=100MW
%chk=JTGMTYWYUZDRBK-UHFFFAOYSA-N.chk
#b3lyp/6-31+G(d) opt freq

gas opt

0 1
C   -0.0000    2.9416   -0.0010
C   -0.0000    1.4346   -0.0009
C    1.2043    0.7333   -0.0004
C    1.2043   -0.7333    0.0002
C    0.0000   -1.4346    0.0004
C    0.0000   -2.9416    0.0016
C   -1.2043   -0.7333   -0.0000
C   -1.2043    0.7333    0.0047
C   -2.4424    1.4114    0.0041
C   -3.5970    0.6977   -0.0008
C   -3.5970   -0.6977   -0.0053
C   -2.4424   -1.4115    0.0002
C    2.4424   -1.4114    0.0002
C    3.5970   -0.6977   -0.0005
C    3.5970    0.6977   -0.0011
C    2.4424    1.4114   -0.0011
H    0.0003    3.3048   -1.0287
H   -0.8902    3.3049    0.5125
H    0.8898    3.3049    0.5130
H   -0.0003   -3.3041    1.0296
H   -0.8898   -3.3053   -0.5122
H    0.8901   -3.3053   -0.5117
H   -2.4708    2.4911    0.0078
H   -4.5403    1.2235   -0.0009
H   -4.5403   -1.2235   -0.0087
H   -2.4707   -2.4911   -0.0035
H    2.4708   -2.4911    0.0010
H    4.5403   -1.2235   -0.0001
H    4.5403    1.2235   -0.0012
H    2.4708    2.4911   -0.0012


