%nprocshared=4
%mem=100MW
%chk=JUHORIMYRDESRB-UHFFFAOYSA-N.chk
#b3lyp/6-31+G(d) opt freq

gas opt

0 1
N    1.8686    0.0066    0.0285
C    0.5049    0.0066    0.5747
C   -0.5049    0.0066   -0.5747
N   -1.8686    0.0066   -0.0285
C   -2.8672    0.0066   -1.1058
C   -4.2507    0.0066   -0.5084
C   -4.8852    1.2037   -0.2343
C   -6.1543    1.2037    0.3137
C   -6.7890    0.0066    0.5874
C   -6.1548   -1.1906    0.3125
C   -4.8875   -1.1906   -0.2396
C    2.8672    0.0066    1.1058
C    4.2507    0.0066    0.5084
C    4.8852    1.2037    0.2343
C    6.1543    1.2037   -0.3137
C    6.7890    0.0066   -0.5874
C    6.1548   -1.1906   -0.3125
C    4.8875   -1.1906    0.2396
H    2.0086   -0.7748   -0.5944
H    0.3587   -0.8834    1.1868
H    0.3587    0.8965    1.1868
H   -0.3587    0.8965   -1.1868
H   -0.3587   -0.8834   -1.1868
H   -2.0086   -0.7748    0.5944
H   -2.7374    0.8965   -1.7216
H   -2.7374   -0.8834   -1.7216
H   -4.3894    2.1390   -0.4481
H   -6.6497    2.1390    0.5285
H   -7.7802    0.0066    1.0163
H   -6.6506   -2.1259    0.5266
H   -4.3920   -2.1259   -0.4543
H    2.7374    0.8965    1.7216
H    2.7374   -0.8834    1.7216
H    4.3894    2.1390    0.4481
H    6.6497    2.1390   -0.5285
H    7.7802    0.0066   -1.0163
H    6.6506   -2.1259   -0.5266
H    4.3920   -2.1259    0.4543


