%nprocshared=4
%mem=100MW
%chk=JWUJQDFVADABEY-UHFFFAOYSA-N.chk
#b3lyp/6-31+G(d) opt freq

gas opt

0 1
C    2.0585   -0.0150   -0.3418
C    0.7600   -0.0803    0.4648
O    0.0045    1.1206    0.2675
C   -1.2562    0.8115   -0.3477
C   -1.5372   -0.6658    0.0256
C   -0.1038   -1.2612   -0.0278
H    2.6603    0.8247    0.0058
H    2.6163   -0.9418   -0.2079
H    1.8239    0.1185   -1.3978
H    0.9883   -0.2038    1.5235
H   -2.0393    1.4576    0.0491
H   -1.1862    0.9215   -1.4299
H   -1.9582   -0.7445    1.0279
H   -2.1872   -1.1400   -0.7098
H    0.1634   -1.5383   -1.0476
H   -0.0131   -2.1149    0.6437


