%nprocshared=4
%mem=100MW
%chk=JZUTXVTYJDCMDU-UHFFFAOYSA-N.chk
#b3lyp/6-31+G(d) opt freq

gas opt

0 1
O   -4.3217   -1.0353    1.3190
C   -4.7724   -2.3831    1.1692
C   -3.5979   -0.5105    0.2978
C   -4.2375    0.1561   -0.7435
O   -5.5916    0.2822   -0.7381
C   -6.1829    0.9779   -1.8374
C   -3.4984    0.6914   -1.7844
C   -2.1171    0.5667   -1.7975
C   -1.4738   -0.0889   -0.7767
C   -0.0239   -0.3934   -0.4938
C    0.7694    0.9079   -0.3592
N    0.2897    1.6491    0.8115
C   -1.1128    2.0518    0.6411
C    1.1477    2.8186    1.0598
C    2.4960    2.3279    1.5877
C    3.0392    1.2475    0.6875
C    2.2340    0.5856   -0.2155
C    2.7721   -0.4061   -1.0227
C    4.1126   -0.7350   -0.9300
O    4.8703   -1.6536   -1.5975
C    6.0596   -1.8211   -0.8033
O    6.1931   -0.5620   -0.1178
C    4.9258   -0.0643   -0.0198
C    4.3841    0.9232    0.7837
O    0.0036   -1.1268    0.7613
C   -1.2538   -1.2688    1.2134
O   -1.5620   -1.8378    2.2419
C   -2.2032   -0.6313    0.2883
H   -5.3369   -2.6779    2.0538
H   -5.4113   -2.4569    0.2891
H   -3.9126   -3.0425    1.0503
H   -7.2650    1.0068   -1.7094
H   -5.7942    1.9956   -1.8747
H   -5.9405    0.4621   -2.7665
H   -3.9994    1.2080   -2.5898
H   -1.5461    0.9859   -2.6128
H    0.3932   -1.0043   -1.2944
H    0.6230    1.5133   -1.2537
H   -1.7641    1.2138    0.8894
H   -1.3326    2.8908    1.3013
H   -1.2822    2.3495   -0.3936
H    1.2964    3.3679    0.1301
H    0.6785    3.4665    1.8002
H    3.1981    3.1611    1.6171
H    2.3673    1.9294    2.5940
H    2.1400   -0.9251   -1.7280
H    5.9317   -2.6345   -0.0890
H    6.9241   -2.0031   -1.4418
H    5.0126    1.4448    1.4904


