%nprocshared=4
%mem=100MW
%chk=KAATUXNTWXVJKI-UHFFFAOYSA-N.chk
#b3lyp/6-31+G(d) opt freq

gas opt

0 1
Cl   -6.4339    0.3346   -0.4319
C   -5.0167   -0.6097   -0.7693
C   -3.8863   -0.3388   -0.1581
C   -3.8194    0.7917    0.8361
C   -3.4201    0.4467    2.2722
C   -4.0792    1.2439    3.3996
C   -3.1199   -1.0197    2.5891
C   -2.4387    1.1886    1.3626
C   -1.2499    0.4192    0.8473
O   -1.1002   -0.7394    1.1557
O   -0.3572    1.0209    0.0455
C    0.7629    0.2188   -0.4129
C    0.4071   -0.4429   -1.6788
N    0.1324   -0.9535   -2.6557
C    1.9611    1.1067   -0.6297
C    3.2298    0.6327   -0.3568
C    4.3325    1.4505   -0.5570
O    5.5814    0.9866   -0.2897
C    5.7051   -0.2891    0.1616
C    5.8652   -1.3325   -0.7390
C    5.9906   -2.6285   -0.2776
C    5.9567   -2.8864    1.0804
C    5.7968   -1.8486    1.9800
C    5.6771   -0.5501    1.5241
C    4.1578    2.7430   -1.0312
C    2.8874    3.2119   -1.3026
C    1.7903    2.3929   -1.1071
Cl   -5.0956   -1.9165   -1.9094
H   -3.0047   -0.9262   -0.3681
H   -4.5519    1.5863    0.6945
H   -4.7482    0.5927    3.9621
H   -3.3101    1.6365    4.0648
H   -4.6489    2.0706    2.9751
H   -3.0958   -1.5940    1.6630
H   -2.1532   -1.0932    3.0875
H   -3.8967   -1.4166    3.2427
H   -2.2627    2.2446    1.5673
H    1.0007   -0.5356    0.3371
H    3.3631   -0.3734    0.0125
H    5.8913   -1.1316   -1.7998
H    6.1148   -3.4410   -0.9782
H    6.0549   -3.9004    1.4391
H    5.7699   -2.0528    3.0401
H    5.5526    0.2602    2.2272
H    5.0145    3.3817   -1.1877
H    2.7509    4.2177   -1.6716
H    0.7977    2.7613   -1.3202


