%nprocshared=4
%mem=100MW
%chk=KDDQDUIBYASSFC-UHFFFAOYSA-N.chk
#b3lyp/6-31+G(d) opt freq

gas opt

0 1
F   -4.2602   -0.5637   -0.6061
C   -3.0246   -0.9867   -0.1044
F   -3.1855   -1.4414    1.2088
F   -2.5290   -2.0252   -0.9001
C   -2.0542    0.1662   -0.1216
C   -0.7487    0.0022    0.3302
N   -0.3597   -1.2286    0.8542
H   -1.0130   -1.6947    1.3991
C    0.8092   -1.8293    0.6859
O    0.9528   -2.9190    1.2055
C    1.9442   -1.2953   -0.0723
C    2.2742    0.0683   -0.0200
N    1.4567    0.9497    0.6670
C    1.9862    1.7310    1.7875
C    2.5422    3.0577    1.2666
C    0.1236    1.0858    0.2799
N   -0.2998    2.2655   -0.1539
C   -1.5343    2.4508   -0.5799
C   -1.9567    3.8138   -1.0645
C   -2.4427    1.4119   -0.5936
N    3.3455    0.5206   -0.6546
C    4.1051   -0.2697   -1.3879
C    3.8173   -1.6154   -1.5237
C    2.7258   -2.1482   -0.8595
H    1.1876    1.9275    2.5029
H    2.7826    1.1704    2.2771
H    1.7458    3.6183    0.7771
H    2.9362    3.6390    2.1003
H    3.3408    2.8611    0.5513
H   -1.7668    3.8938   -2.1349
H   -3.0205    3.9540   -0.8728
H   -1.3883    4.5794   -0.5365
H   -3.4467    1.5688   -0.9592
H    4.9676    0.1415   -1.8912
H    4.4388   -2.2454   -2.1426
H    2.4839   -3.1972   -0.9460


