%nprocshared=4
%mem=100MW
%chk=KFIRODWJCYBBHY-UHFFFAOYSA-N.chk
#b3lyp/6-31+G(d) opt freq

gas opt

0 1
O   -3.5385   -0.6469    0.0005
N   -2.4983   -0.0133    0.0129
O   -2.5270    1.2040    0.0421
C   -1.1993   -0.7228   -0.0013
C   -0.0102    0.0014    0.0129
C   -0.0397    1.4792    0.0422
O   -0.0517    2.0655    1.1058
O   -0.0533    2.1756   -1.1109
C    1.2204   -0.6822   -0.0002
C    2.4911    0.0733    0.0151
O    2.4754    1.2875    0.0391
O    3.6663   -0.5849    0.0024
C    1.2334   -2.0743   -0.0273
C    0.0428   -2.7764   -0.0411
C   -1.1667   -2.1046   -0.0229
H   -0.0726    3.1399   -1.0412
H    4.4704   -0.0480    0.0132
H    2.1737   -2.6054   -0.0379
H    0.0567   -3.8561   -0.0621
H   -2.0910   -2.6631   -0.0335


