%nprocshared=4
%mem=100MW
%chk=KHBQMWCZKVMBLN-UHFFFAOYSA-N.chk
#b3lyp/6-31+G(d) opt freq

gas opt

0 1
S   -1.4214    0.0019   -0.1104
O   -1.8032   -1.2478   -0.6687
O   -1.7997    1.2516   -0.6711
N   -1.9720    0.0042    1.4513
C    0.3393   -0.0005   -0.0428
C    1.0283   -1.1986   -0.0151
C    2.4096   -1.2005    0.0381
C    3.1020   -0.0043    0.0630
C    2.4130    1.1938    0.0344
C    1.0319    1.1957   -0.0231
H   -2.5304   -0.7222    1.7698
H   -1.7361    0.7320    2.0477
H    0.4873   -2.1332   -0.0346
H    2.9478   -2.1366    0.0604
H    4.1811   -0.0058    0.1053
H    2.9540    2.1283    0.0542
H    0.4936    2.1317   -0.0455


