%nprocshared=4
%mem=100MW
%chk=KMAQZIILEGKYQZ-UHFFFAOYSA-N.chk
#b3lyp/6-31+G(d) opt freq

gas opt

0 1
Cl   -2.8865    0.8808   -0.0005
C   -1.4254   -0.0567   -0.0008
C   -0.1958    0.5779   -0.0002
C    0.9670   -0.1689   -0.0005
N    2.2824    0.5098    0.0001
O    2.3399    1.7265    0.0009
O    3.3072   -0.1483   -0.0001
C    0.9018   -1.5500   -0.0009
C   -0.3261   -2.1845   -0.0015
C   -1.4899   -1.4385    0.0041
H   -0.1448    1.6567    0.0001
H    1.8108   -2.1333   -0.0012
H   -0.3764   -3.2634   -0.0022
H   -2.4493   -1.9344    0.0040


