%nprocshared=4
%mem=100MW
%chk=KMRNTNDWADEIIX-UHFFFAOYSA-N.chk
#b3lyp/6-31+G(d) opt freq

gas opt

0 1
I   -1.4577    0.0424   -0.0000
C    0.5832   -0.6708    0.0000
C    1.5405    0.5228    0.0000
C    2.9632    0.0256    0.0000
O    3.1883   -1.1614   -0.0000
O    3.9802    0.9016   -0.0000
H    0.7567   -1.2757    0.8900
H    0.7567   -1.2757   -0.8900
H    1.3670    1.1277   -0.8900
H    1.3670    1.1277    0.8900
H    4.8752    0.5353   -0.0000


