%nprocshared=4
%mem=100MW
%chk=KNAHARQHSZJURB-UHFFFAOYSA-N.chk
#b3lyp/6-31+G(d) opt freq

gas opt

0 1
S    2.4791   -1.8815   -0.0949
C    1.3746   -0.5790    0.0261
N    1.8133    0.6813   -0.1496
H    2.7497    0.8443   -0.3431
C    0.9561    1.7181   -0.0580
O    1.3518    2.8587   -0.2175
C   -0.4086    1.4682    0.2249
C   -0.8212    0.1938    0.3969
C   -2.2683   -0.0992    0.6984
C   -3.0049   -0.4231   -0.6029
C   -4.4742   -0.7206   -0.2968
N    0.0795   -0.8301    0.2899
H   -0.2169   -1.7454    0.4134
H   -1.1100    2.2857    0.3024
H   -2.3332   -0.9517    1.3745
H   -2.7254    0.7721    1.1675
H   -2.9401    0.4294   -1.2790
H   -2.5479   -1.2944   -1.0719
H   -4.9313    0.1507    0.1722
H   -4.9989   -0.9513   -1.2239
H   -4.5391   -1.5731    0.3793


