%nprocshared=4
%mem=100MW
%chk=KOCYTWBTXZOUFS-UHFFFAOYSA-N.chk
#b3lyp/6-31+G(d) opt freq

gas opt

0 1
C    3.4401    0.6967    0.0009
C    2.0182    0.1973    0.0011
N    1.0267    1.0605    0.0001
C   -0.2334    0.6178   -0.0002
N   -1.2767    1.4562   -0.0008
C   -2.5022    0.9894   -0.0006
N   -2.7774   -0.3067    0.0003
C   -1.8234   -1.2146    0.0009
C   -0.4834   -0.7786    0.0007
N    0.5380   -1.6363    0.0008
C    1.7695   -1.1776   -0.0034
H    3.7827    0.8180    1.0286
H    4.0779   -0.0232   -0.5121
H    3.4881    1.6563   -0.5138
H   -3.3225    1.6919   -0.0007
H   -2.0622   -2.2679    0.0019
H    2.5978   -1.8706   -0.0033


