%nprocshared=4
%mem=100MW
%chk=KPSSIOMAKSHJJG-UHFFFAOYSA-N.chk
#b3lyp/6-31+G(d) opt freq

gas opt

0 1
O    1.9651   -0.0272    0.0000
C    0.8291    0.8398   -0.0000
C   -0.4514    0.0024   -0.0000
C   -0.4836   -0.8803    1.2493
C   -1.6677    0.9306   -0.0000
C   -0.4836   -0.8804   -1.2492
H    2.8137    0.4365   -0.0000
H    0.8520    1.4687    0.8900
H    0.8520    1.4686   -0.8900
H   -0.4607   -0.2514    2.1392
H   -1.3958   -1.4769    1.2493
H    0.3830   -1.5416    1.2493
H   -1.6448    1.5595   -0.8900
H   -2.5800    0.3341   -0.0000
H   -1.6448    1.5595    0.8900
H    0.3830   -1.5416   -1.2492
H   -1.3958   -1.4769   -1.2492
H   -0.4607   -0.2515   -2.1392


