%nprocshared=4
%mem=100MW
%chk=KQNPFQTWMSNSAP-UHFFFAOYSA-N.chk
#b3lyp/6-31+G(d) opt freq

gas opt

0 1
O    0.9711   -1.2276    0.3775
C    0.6963   -0.1343   -0.0573
O    1.6602    0.7859   -0.2178
C   -0.7277    0.1941   -0.4254
C   -1.6177   -1.0205   -0.1538
C   -1.2112    1.3785    0.4139
H    2.5590    0.5277    0.0283
H   -0.7792    0.4530   -1.4829
H   -1.5662   -1.2795    0.9037
H   -2.6477   -0.7830   -0.4200
H   -1.2733   -1.8643   -0.7517
H   -0.5772    2.2437    0.2204
H   -2.2412    1.6160    0.1477
H   -1.1598    1.1195    1.4714


