%nprocshared=4
%mem=100MW
%chk=KRTSDMXIXPKRQR-UHFFFAOYSA-N.chk
#b3lyp/6-31+G(d) opt freq

gas opt

0 1
P    1.6570    0.1267   -0.1815
O    1.3973    0.5425   -1.5780
O    0.7667    1.0204    0.8189
C   -0.5637    1.0423    0.6005
C   -1.2221   -0.1018    0.3473
C   -2.5859   -0.0643   -0.0390
O   -3.1300    1.0043   -0.2489
N   -3.2799   -1.2118   -0.1739
C   -4.6889   -1.1731   -0.5730
C   -1.3123    2.3496    0.6403
O    1.2697   -1.4258   -0.0030
C    1.4075   -2.1248    1.2357
O    3.2170    0.3332    0.1587
C    4.2666   -0.2443   -0.6204
H   -0.7124   -1.0496    0.4382
H   -2.8464   -2.0633   -0.0067
H   -5.2593   -0.6053    0.1620
H   -4.7771   -0.6958   -1.5490
H   -5.0787   -2.1895   -0.6291
H   -1.4108    2.7428   -0.3716
H   -2.3029    2.1882    1.0654
H   -0.7647    3.0634    1.2557
H    0.7926   -1.6424    1.9955
H    1.0834   -3.1576    1.1080
H    2.4515   -2.1076    1.5485
H    4.1684   -1.3299   -0.6143
H    4.2013    0.1206   -1.6454
H    5.2306    0.0357   -0.1957


