%nprocshared=4
%mem=100MW
%chk=KSCFJBIXMNOVSH-UHFFFAOYSA-N.chk
#b3lyp/6-31+G(d) opt freq

gas opt

0 1
O   -3.9929    0.8313    0.5400
C   -2.8617    0.4896    0.2532
N   -1.9502    1.4299   -0.0499
C   -2.3367    2.8428   -0.0282
C   -0.6846    1.0920   -0.3734
O    0.1325    1.9532   -0.6458
C   -0.3185   -0.2711   -0.3919
N    0.8468   -0.9580   -0.6679
C    2.1336   -0.3724   -1.0516
C    2.9072    0.0277    0.2063
O    3.2337   -1.1433    0.9574
C    4.1941    0.7515   -0.1950
O    4.8584    1.2273    0.9773
C    0.5760   -2.2692   -0.5170
N   -0.6757   -2.4241   -0.1678
C   -1.2708   -1.2321   -0.0765
N   -2.5523   -0.8208    0.2527
C   -3.5732   -1.8134    0.5973
H   -3.3866    2.9281    0.2520
H   -1.7225    3.3764    0.6972
H   -2.1884    3.2753   -1.0178
H    2.7117   -1.1039   -1.6164
H    1.9619    0.5096   -1.6685
H    2.2925    0.6904    0.8154
H    3.7806   -1.7793    0.4763
H    4.8479    0.0614   -0.7283
H    3.9504    1.5943   -0.8419
H    5.6841    1.6975    0.7980
H    1.2846   -3.0711   -0.6625
H   -3.5526   -1.9980    1.6713
H   -4.5559   -1.4380    0.3118
H   -3.3705   -2.7428    0.0649


