%nprocshared=4
%mem=100MW
%chk=KSFDHSSNYJNHAN-UHFFFAOYSA-N.chk
#b3lyp/6-31+G(d) opt freq

gas opt

0 1
C    2.6444    2.1766   -0.1618
C    1.5110    1.2194    0.1027
N    0.3630    1.4582   -0.3975
C   -0.7533    0.6994   -0.2133
C   -0.7532   -0.6993   -0.2136
N    0.3634   -1.4576   -0.3976
C    1.5113   -1.2184    0.1027
C    2.6452   -2.1750   -0.1622
C    1.7599   -0.0027    0.9476
C   -1.9613   -1.3838   -0.0152
C   -3.1360   -0.6927    0.1775
C   -3.1361    0.6922    0.1780
C   -1.9615    1.3836   -0.0142
H    2.2903    2.9946   -0.7893
H    3.0106    2.5764    0.7838
H    3.4522    1.6513   -0.6714
H    2.2915   -2.9928   -0.7899
H    3.4528   -1.6490   -0.6714
H    3.0116   -2.5749    0.7833
H    2.7913   -0.0039    1.3003
H    1.0789    0.0000    1.7987
H   -1.9700   -2.4637   -0.0140
H   -4.0597   -1.2316    0.3283
H   -4.0598    1.2309    0.3297
H   -1.9703    2.4635   -0.0122


