%nprocshared=4
%mem=100MW
%chk=KSMVNVHUTQZITP-UHFFFAOYSA-N.chk
#b3lyp/6-31+G(d) opt freq

gas opt

0 1
Cl   -5.1055   -1.0044    0.0002
C   -3.4201   -0.5885   -0.0008
C   -3.0409    0.7468   -0.0005
Cl   -4.2510    1.9915    0.0001
C   -1.7035    1.0860   -0.0003
C   -0.7378    0.0849   -0.0008
C   -1.1174   -1.2643   -0.0016
O   -0.0000   -2.0245   -0.0015
C    1.1174   -1.2643   -0.0008
C    0.7377    0.0849   -0.0004
C    1.7035    1.0861   -0.0000
C    3.0409    0.7468   -0.0001
Cl    4.2510    1.9915    0.0003
C    3.4201   -0.5885   -0.0001
Cl    5.1055   -1.0044    0.0003
C    2.4688   -1.5882    0.0004
C   -2.4689   -1.5882    0.0040
H   -1.4076    2.1247   -0.0001
H    1.4076    2.1248   -0.0000
H    2.7751   -2.6238    0.0005
H   -2.7751   -2.6238    0.0039


