%nprocshared=4
%mem=100MW
%chk=KTXUOWUHFLBZPW-UHFFFAOYSA-N.chk
#b3lyp/6-31+G(d) opt freq

gas opt

0 1
Cl   -4.4000    0.8628    0.6323
C   -3.0382   -0.0852    0.1220
C   -1.7727    0.4685    0.1244
C   -0.6811   -0.2940   -0.2854
C    0.6809    0.2951   -0.2846
C    1.7723   -0.4681    0.1245
C    3.0379    0.0855    0.1233
Cl    4.3996   -0.8636    0.6321
C    3.2220    1.3958   -0.2835
C    2.1414    2.1570   -0.6904
C    0.8735    1.6116   -0.6984
C   -0.8725   -1.6118   -0.6957
C   -2.1412   -2.1555   -0.6943
C   -3.2213   -1.3968   -0.2812
H   -1.6298    1.4905    0.4430
H    1.6291   -1.4903    0.4423
H    4.2130    1.8253   -0.2828
H    2.2906    3.1788   -1.0068
H    0.0306    2.2071   -1.0168
H   -0.0296   -2.2068   -1.0146
H   -2.2902   -3.1768   -1.0122
H   -4.2122   -1.8263   -0.2818


