%nprocshared=4
%mem=100MW
%chk=KVBGVZZKJNLNJU-UHFFFAOYSA-N.chk
#b3lyp/6-31+G(d) opt freq

gas opt

0 1
S   -2.4892   -0.1597   -0.0825
O   -2.6165   -1.4578   -0.6464
O   -3.1275    0.9887   -0.6236
O   -2.9565   -0.2708    1.3617
C   -0.7647    0.2001   -0.0464
C    0.1337   -0.8226   -0.0434
C    1.5095   -0.5392   -0.0151
C    1.9405    0.8109    0.0100
C    0.9836    1.8397    0.0066
C   -0.3409    1.5273   -0.0270
C    3.3168    1.0943    0.0388
C    4.2149    0.0718    0.0422
C    3.7911   -1.2557    0.0170
C    2.4669   -1.5682   -0.0107
H   -3.8984   -0.4684    1.4562
H   -0.2094   -1.8465   -0.0624
H    1.2974    2.8729    0.0258
H   -1.0744    2.3200   -0.0299
H    3.6599    2.1182    0.0577
H    5.2719    0.2924    0.0643
H    4.5247   -2.0484    0.0196
H    2.1532   -2.6015   -0.0297


