%nprocshared=4
%mem=100MW
%chk=KWGRBVOPPLSCSI-WPRPVWTQSA-N.chk
#b3lyp/6-31+G(d) opt freq

gas opt

0 1
O   -0.8236    1.3894    1.3704
C   -0.6044    0.0629    0.8862
H   -0.7782   -0.6511    1.6912
C   -1.5677   -0.2246   -0.2672
H   -1.3416   -1.2016   -0.6945
N   -2.9484   -0.2172    0.2344
C   -3.8230   -1.0323   -0.6191
C   -1.4104    0.8514   -1.3434
C    0.8157   -0.0656    0.3985
C    1.4975   -1.2569    0.5622
C    2.8002   -1.3747    0.1149
C    3.4209   -0.3014   -0.4964
C    2.7387    0.8896   -0.6609
C    1.4346    1.0061   -0.2175
H   -0.6867    2.0783    0.7058
H   -2.9863   -0.5290    1.1933
H   -3.8173   -0.6317   -1.6328
H   -3.4616   -2.0606   -0.6328
H   -4.8390   -1.0095   -0.2251
H   -1.6365    1.8284   -0.9162
H   -0.3859    0.8460   -1.7157
H   -2.0966    0.6466   -2.1651
H    1.0126   -2.0954    1.0398
H    3.3332   -2.3052    0.2434
H    4.4389   -0.3932   -0.8452
H    3.2237    1.7283   -1.1382
H    0.9016    1.9366   -0.3460


