%nprocshared=4
%mem=100MW
%chk=KZNICNPSHKQLFF-UHFFFAOYSA-N.chk
#b3lyp/6-31+G(d) opt freq

gas opt

0 1
O   -2.2510    0.6219   -0.0004
C   -1.1258    0.1709   -0.0011
N   -0.0000    0.8954    0.0003
C    1.1258    0.1709   -0.0004
O    2.2510    0.6219    0.0010
C    0.7711   -1.3001   -0.0027
C   -0.7711   -1.3001    0.0029
H   -0.0000    1.8654    0.0017
H    1.1550   -1.7858   -0.8997
H    1.1545   -1.7885    0.8932
H   -1.1515   -1.7893    0.8996
H   -1.1580   -1.7850   -0.8934


