%nprocshared=4
%mem=100MW
%chk=KZTYYGOKRVBIMI-UHFFFAOYSA-N.chk
#b3lyp/6-31+G(d) opt freq

gas opt

0 1
S    0.0000    1.2316   -0.0000
O   -0.0002    1.9079   -1.2497
O    0.0002    1.9079    1.2497
C   -1.4184    0.1862    0.0002
C   -1.9746   -0.2238    1.1975
C   -3.0873   -1.0440    1.1976
C   -3.6442   -1.4537    0.0006
C   -3.0885   -1.0429   -1.1967
C   -1.9783   -0.2192   -1.1968
C    1.4184    0.1862   -0.0002
C    1.9746   -0.2238   -1.1975
C    3.0873   -1.0440   -1.1976
C    3.6442   -1.4537   -0.0006
C    3.0885   -1.0429    1.1967
C    1.9783   -0.2192    1.1968
H   -1.5396    0.0963    2.1327
H   -3.5214   -1.3650    2.1330
H   -4.5131   -2.0951    0.0007
H   -3.5233   -1.3633   -2.1319
H   -1.5442    0.1017   -2.1322
H    1.5396    0.0963   -2.1327
H    3.5214   -1.3650   -2.1330
H    4.5131   -2.0951   -0.0007
H    3.5233   -1.3633    2.1319
H    1.5442    0.1017    2.1322


