%nprocshared=4
%mem=100MW
%chk=LCCNCVORNKJIRZ-UHFFFAOYSA-N.chk
#b3lyp/6-31+G(d) opt freq

gas opt

0 1
S    1.1810    0.7431    1.4808
P    1.6865    0.2029   -0.2296
O    3.1322    0.8180   -0.5812
C    4.2284    0.8028    0.3354
C    5.4455    1.4644   -0.3141
O    1.7591   -1.4045   -0.2852
C    2.3786   -2.1913    0.7343
C    2.2712   -3.6735    0.3704
O    0.6048    0.7286   -1.3000
C   -0.6861    0.5382   -0.9203
C   -1.3487    1.5177   -0.1949
C   -2.6611    1.3220    0.1894
C   -3.3142    0.1509   -0.1480
N   -4.7203   -0.0562    0.2650
O   -5.3011    0.8046    0.9016
O   -5.2965   -1.0874   -0.0317
C   -2.6560   -0.8268   -0.8710
C   -1.3454   -0.6335   -1.2626
H    3.9553    1.3503    1.2374
H    4.4705   -0.2278    0.5952
H    6.2816    1.4528    0.3851
H    5.7185    0.9168   -1.2161
H    5.2034    2.4949   -0.5739
H    3.4291   -1.9133    0.8198
H    1.8771   -2.0134    1.6856
H    2.7437   -4.2736    1.1480
H    1.2207   -3.9514    0.2849
H    2.7727   -3.8513   -0.5809
H   -0.8388    2.4323    0.0695
H   -3.1773    2.0842    0.7542
H   -3.1682   -1.7408   -1.1330
H   -0.8318   -1.3974   -1.8273


