%nprocshared=4
%mem=100MW
%chk=LDCFNNYCIXKMNJ-UHFFFAOYSA-N.chk
#b3lyp/6-31+G(d) opt freq

gas opt

0 1
O    0.6948   -1.5194    0.7745
C    1.0062   -0.4669    0.2586
N    2.3072   -0.1437    0.1192
C    3.3452   -1.0636    0.5909
C    3.7270   -2.0236   -0.5376
O    4.3297   -1.2887   -1.6047
C    4.7187   -3.0624   -0.0099
C    2.6834    1.1277   -0.5040
C    2.7939    2.2100    0.5717
O    3.8677    1.8917    1.4592
C    3.0639    3.5623   -0.0912
C   -0.0614    0.4766   -0.2323
O   -1.3701   -0.0973    0.0251
C   -2.4408    0.6258   -0.3563
O   -2.2853    1.7062   -0.8894
C   -3.8039    0.1049   -0.1264
C   -4.9158    0.8518   -0.5205
C   -6.1858    0.3592   -0.3032
C   -6.3592   -0.8719    0.3042
C   -5.2618   -1.6170    0.6977
C   -3.9860   -1.1391    0.4809
H    4.2232   -0.4947    0.8966
H    2.9674   -1.6330    1.4401
H    2.8327   -2.5281   -0.9036
H    5.1326   -0.8134   -1.3505
H    4.2589   -3.6229    0.8041
H    4.9907   -3.7463   -0.8138
H    5.6129   -2.5579    0.3561
H    3.6440    1.0157   -1.0068
H    1.9239    1.4145   -1.2314
H    1.8611    2.2606    1.1335
H    4.7304    1.8302    1.0266
H    2.2448    3.8051   -0.7681
H    3.1426    4.3333    0.6752
H    3.9966    3.5117   -0.6529
H    0.0270    1.4289    0.2906
H    0.0605    0.6376   -1.3034
H   -4.7819    1.8131   -0.9941
H   -7.0468    0.9358   -0.6076
H   -7.3558   -1.2527    0.4723
H   -5.4042   -2.5768    1.1720
H   -3.1302   -1.7217    0.7885


