%nprocshared=4
%mem=100MW
%chk=LGDSHSYDSCRFAB-UHFFFAOYSA-N.chk
#b3lyp/6-31+G(d) opt freq

gas opt

0 1
S   -1.5459    0.1307   -0.0000
C   -0.0453   -0.2714    0.0000
N    1.1621   -0.5950    0.0000
C    2.1981    0.4408    0.0000
H    2.0917    1.0611   -0.8900
H    2.0917    1.0611    0.8900
H    3.1816   -0.0290    0.0000


