%nprocshared=4
%mem=100MW
%chk=LINPVWIEWJTEEJ-UHFFFAOYSA-N.chk
#b3lyp/6-31+G(d) opt freq

gas opt

0 1
Cl   -4.5875    0.2759   -0.0915
C   -2.9682   -0.3442   -0.0074
C   -1.8985    0.4657   -0.3513
C   -0.6123   -0.0251   -0.2846
C    0.7274    0.5997   -0.5882
O    0.7852    0.9982   -1.9593
C    0.9601    1.7892    0.3075
O    0.4009    1.8591    1.3763
O    1.7884    2.7709   -0.0822
C    1.9648    3.8858    0.8311
C    1.7574   -0.4684   -0.3137
C    1.0782   -1.6073    0.1098
C   -0.3804   -1.3348    0.1278
C   -1.4628   -2.1456    0.4734
C   -2.7468   -1.6457    0.4087
C    1.8031   -2.7561    0.4327
C    3.1785   -2.7542    0.3304
C    3.8446   -1.6174   -0.0914
C    3.1328   -0.4754   -0.4127
H   -2.0723    1.4822   -0.6723
H    1.6233    1.4071   -2.2151
H    1.0028    4.3670    1.0072
H    2.3671    3.5211    1.7763
H    2.6571    4.6063    0.3955
H   -1.2949   -3.1630    0.7944
H   -3.5830   -2.2743    0.6768
H    1.2871   -3.6456    0.7628
H    3.7377   -3.6435    0.5809
H    4.9217   -1.6214   -0.1698
H    3.6547    0.4111   -0.7417


