%nprocshared=4
%mem=100MW
%chk=LJOZMWRYMKECFF-UHFFFAOYSA-N.chk
#b3lyp/6-31+G(d) opt freq

gas opt

0 1
I   -1.8711   -1.3528    0.0781
C   -1.8166    0.7399   -0.0046
C   -0.5911    1.4060   -0.0775
C    0.6712    0.6380   -0.0970
O    0.6446   -0.5765   -0.0496
N    1.8520    1.2839   -0.1673
C    3.0485    0.5642   -0.0882
C    3.1351   -0.7055   -0.6443
C    4.3181   -1.4136   -0.5644
C    5.4158   -0.8597    0.0685
C    5.3328    0.4041    0.6237
C    4.1546    1.1200    0.5418
C   -0.5642    2.8006   -0.1322
C   -1.7463    3.5115   -0.1140
C   -2.9570    2.8457   -0.0413
C   -2.9919    1.4635    0.0070
H    1.8720    2.2479   -0.2729
H    2.2780   -1.1388   -1.1384
H    4.3859   -2.4011   -0.9963
H    6.3398   -1.4155    0.1297
H    6.1918    0.8338    1.1176
H    4.0905    2.1071    0.9752
H    0.3800    3.3218   -0.1882
H   -1.7267    4.5905   -0.1563
H   -3.8793    3.4075   -0.0270
H   -3.9403    0.9500    0.0637


