%nprocshared=4
%mem=100MW
%chk=LOAUVZALPPNFOQ-UHFFFAOYSA-N.chk
#b3lyp/6-31+G(d) opt freq

gas opt

0 1
O    3.6067   -0.6743    0.0028
C    2.7647    0.2006    0.0023
O    3.1382    1.4944   -0.0030
C    1.3264   -0.1554    0.0015
N    0.4242    0.8073    0.0009
C   -0.8797    0.5339    0.0002
C   -1.3213   -0.8154   -0.0001
C   -0.3668   -1.8493    0.0000
C    0.9553   -1.5081   -0.0045
C   -2.6977   -1.0940    0.0000
C   -3.5924   -0.0681    0.0004
C   -3.1618    1.2582    0.0002
C   -1.8374    1.5666    0.0001
H    4.0877    1.6773   -0.0064
H   -0.6719   -2.8853    0.0001
H    1.7131   -2.2775   -0.0046
H   -3.0445   -2.1168   -0.0006
H   -4.6505   -0.2844    0.0005
H   -3.8923    2.0537    0.0001
H   -1.5212    2.5993    0.0003


