%nprocshared=4
%mem=100MW
%chk=LRQUYRADZABVMX-UHFFFAOYSA-N.chk
#b3lyp/6-31+G(d) opt freq

gas opt

0 1
S    3.5878   -0.9236    0.1576
O    3.4838   -1.3434    1.5112
O    4.7415   -0.2848   -0.3716
N    3.3321   -2.2709   -0.7708
C    2.2372    0.1712   -0.1290
S    2.1830    1.4095   -1.3768
C    0.5703    1.8935   -0.8685
C    0.1794    1.1375    0.1586
S   -1.3891    1.3339    0.9370
O   -1.2540    0.8082    2.2502
O   -1.8043    2.6669    0.6724
C   -2.5247    0.2826    0.0945
C   -2.7061   -1.0193    0.5201
C   -3.6006   -1.8463   -0.1433
O   -3.7811   -3.1271    0.2737
C   -4.3111   -1.3635   -1.2329
C   -4.1262   -0.0613   -1.6544
C   -3.2377    0.7628   -0.9881
C    1.0973    0.1838    0.5635
H    3.2483   -3.1410   -0.3502
H    3.2662   -2.1900   -1.7352
H   -0.0139    2.6823   -1.3188
H   -2.1517   -1.3929    1.3683
H   -4.4800   -3.2311    0.9338
H   -5.0078   -2.0056   -1.7513
H   -4.6787    0.3149   -2.5027
H   -3.0948    1.7809   -1.3190
H    0.9076   -0.4942    1.3826


