%nprocshared=4
%mem=100MW
%chk=LRUUNMYPIBZBQH-UHFFFAOYSA-N.chk
#b3lyp/6-31+G(d) opt freq

gas opt

0 1
Cl    3.0432   -1.8668    0.5404
C    2.0268   -0.5040    0.1890
C    2.5940    0.7127   -0.1530
Cl    4.3210    0.8728   -0.2290
C    1.7867    1.8004   -0.4344
C    0.4124    1.6763   -0.3743
C   -0.1599    0.4578   -0.0313
N   -1.5500    0.3300    0.0301
C   -2.2436   -0.7430   -0.3962
O   -1.7828   -1.7530   -0.8937
N   -3.5509   -0.4825   -0.1651
C   -4.6960   -1.3480   -0.4579
C   -3.5734    0.7486    0.3947
O   -4.5603    1.3594    0.7567
O   -2.3030    1.1666    0.4793
C    0.6524   -0.6350    0.2450
H    2.2316    2.7477   -0.7011
H   -0.2170    2.5262   -0.5936
H   -4.8993   -1.9852    0.4028
H   -5.5711   -0.7336   -0.6698
H   -4.4697   -1.9692   -1.3245
H    0.2102   -1.5836    0.5116


