%nprocshared=4
%mem=100MW
%chk=LTEQMZWBSYACLV-UHFFFAOYSA-N.chk
#b3lyp/6-31+G(d) opt freq

gas opt

0 1
C   -2.1185    0.0024   -0.6709
C   -3.1936   -0.0014    0.4177
C   -4.5783    0.0010   -0.2331
C   -5.6535   -0.0028    0.8554
C   -0.7338    0.0001   -0.0200
C    0.3414    0.0039   -1.1086
C    1.7052    0.0016   -0.4675
C    2.3307   -1.1966   -0.1778
C    3.5817   -1.1987    0.4103
C    4.2075   -0.0026    0.7081
C    3.5824    1.1956    0.4175
C    2.3332    1.1977   -0.1745
H   -2.2288   -0.8853   -1.2936
H   -2.2287    0.8946   -1.2873
H   -3.0834   -0.8935    1.0341
H   -3.0833    0.8864    1.0404
H   -4.6885    0.8931   -0.8496
H   -4.6886   -0.8868   -0.8559
H   -5.5432   -0.8950    1.4718
H   -5.5432    0.8849    1.4781
H   -6.6399   -0.0012    0.3918
H   -0.6235    0.8879    0.6027
H   -0.6236   -0.8921    0.5964
H    0.2311   -0.8839   -1.7313
H    0.2311    0.8961   -1.7250
H    1.8418   -2.1311   -0.4105
H    4.0701   -2.1348    0.6373
H    5.1846   -0.0043    1.1682
H    4.0711    2.1300    0.6506
H    1.8448    2.1338   -0.4015


