%nprocshared=4
%mem=100MW
%chk=LUKBXSAWLPMMSZ-OWOJBTEDSA-N.chk
#b3lyp/6-31+G(d) opt freq

gas opt

0 1
O    3.9965    2.5172    0.0233
C    3.5127    1.2472    0.0100
C    4.3898    0.1720   -0.0037
C    3.9021   -1.1271   -0.0178
O    4.7661   -2.1760   -0.0317
C    2.5365   -1.3564   -0.0172
C    1.6496   -0.2774   -0.0029
C    0.1950   -0.5159   -0.0022
C   -0.6556    0.5229    0.0115
C   -2.1096    0.2845    0.0122
C   -2.9971    1.3643    0.0265
C   -4.3561    1.1363    0.0266
C   -4.8444   -0.1640    0.0130
O   -6.1850   -0.3838    0.0136
C   -3.9664   -1.2402   -0.0017
C   -2.6058   -1.0222   -0.0073
C    2.1455    1.0283    0.0160
H    4.1348    2.8946   -0.8562
H    5.4556    0.3467   -0.0039
H    5.0179   -2.4898    0.8476
H    2.1579   -2.3678   -0.0282
H   -0.1865   -1.5262   -0.0128
H   -0.2741    1.5332    0.0220
H   -2.6184    2.3756    0.0378
H   -5.0426    1.9699    0.0376
H   -6.5752   -0.4375   -0.8696
H   -4.3507   -2.2495   -0.0123
H   -1.9239   -1.8596   -0.0191
H    1.4637    1.8658    0.0274


