%nprocshared=4
%mem=100MW
%chk=LVHBHZANLOWSRM-UHFFFAOYSA-N.chk
#b3lyp/6-31+G(d) opt freq

gas opt

0 1
O   -2.6397    0.0869   -0.4651
C   -1.5713    0.3619    0.0448
O   -1.2775    1.6428    0.3447
C   -0.6023   -0.7027    0.3398
C   -0.8946   -1.9680    0.0487
C    0.7225   -0.3617    0.9721
C    1.7037    0.0354   -0.1006
O    1.3622    0.0410   -1.2596
O    2.9569    0.3830    0.2315
H   -1.9480    2.3075    0.1357
H   -0.1824   -2.7504    0.2656
H   -1.8440   -2.2124   -0.4044
H    0.5903    0.4665    1.6683
H    1.1032   -1.2305    1.5091
H    3.5501    0.6300   -0.4911


