%nprocshared=4
%mem=100MW
%chk=LXMSZDCAJNLERA-ZHYRCANASA-N.chk
#b3lyp/6-31+G(d) opt freq

gas opt

0 1
S    1.5565   -1.8951    0.7057
C    2.6049   -3.1655    0.2391
O    2.8549   -3.3458   -0.9344
C    3.2173   -4.0600    1.2859
C    1.1579   -1.2039   -0.9190
H    0.7631   -1.9902   -1.5623
C    0.1107   -0.0981   -0.7613
H   -0.0776    0.3761   -1.7246
C   -1.1770   -0.6854   -0.2122
H   -1.0094   -1.1033    0.7805
C   -2.2136    0.4700   -0.1467
C   -2.2286    1.2260   -1.4768
C   -3.5324   -0.2560    0.0447
O   -4.6423    0.4605   -0.5450
C   -5.7197    0.4345    0.2521
O   -6.7805    0.9549   -0.0004
C   -5.4133   -0.3423    1.5151
C   -3.8674   -0.4270    1.5358
C   -3.3600   -1.6379   -0.6192
C   -1.8785   -1.7105   -1.1111
C   -1.7731    1.4011    0.9660
C   -0.4271    2.0099    0.5421
C    0.6250    0.9426    0.2439
H    0.8666    0.4150    1.1666
C    1.8928    1.6215   -0.2892
C    1.5142    2.4071   -1.5463
C    2.9027    0.5852   -0.6760
C    4.1845    0.6346   -0.3149
C    4.6772    1.7552    0.4934
O    5.6979    1.6726    1.1441
C    3.8448    3.0223    0.4728
C    2.4042    2.6082    0.7458
C    2.4226   -0.6151   -1.5484
H    2.5613   -4.9119    1.4648
H    4.1873   -4.4152    0.9381
H    3.3463   -3.4999    2.2121
H   -2.5008    0.5418   -2.2805
H   -2.9569    2.0354   -1.4265
H   -1.2389    1.6393   -1.6710
H   -5.7786    0.1932    2.3913
H   -5.8501   -1.3397    1.4658
H   -3.5337   -1.3976    1.9029
H   -3.4392    0.3816    2.1282
H   -3.5398   -2.4288    0.1090
H   -4.0464   -1.7383   -1.4599
H   -1.8033   -1.4045   -2.1545
H   -1.4749   -2.7134   -0.9722
H   -2.5113    2.1913    1.1029
H   -1.6516    0.8405    1.8929
H   -0.5746    2.6054   -0.3589
H   -0.0637    2.6584    1.3393
H    0.7634    3.1560   -1.2944
H    2.3997    2.9008   -1.9466
H    1.1099    1.7243   -2.2935
H    4.8610   -0.1512   -0.6173
H    4.1888    3.7040    1.2506
H    3.9241    3.5018   -0.5028
H    1.7677    3.4924    0.7136
H    2.3439    2.1641    1.7394
H    3.2056   -1.3722   -1.5916
H    2.1918   -0.2665   -2.5550


