%nprocshared=4
%mem=100MW
%chk=LYGJENNIWJXYER-UHFFFAOYSA-N.chk
#b3lyp/6-31+G(d) opt freq

gas opt

0 1
O    0.6686   -1.0548   -0.0004
N    0.0596    0.0000    0.0014
O    0.6686    1.0548   -0.0004
C   -1.4054   -0.0000   -0.0003
H   -1.7700   -0.0025    1.0269
H   -1.7682    0.8912   -0.5124
H   -1.7682   -0.8887   -0.5167


