%nprocshared=4
%mem=100MW
%chk=MAEIEVLCKWDQJH-UHFFFAOYSA-N.chk
#b3lyp/6-31+G(d) opt freq

gas opt

0 1
S   -3.0390   -0.2457   -0.7166
O   -3.9376   -1.3023   -0.4079
O   -2.9869    0.3832   -1.9898
N   -3.3319    0.9545    0.3861
C   -1.4190   -0.8616   -0.3992
C   -0.3169   -0.0374   -0.5818
O   -0.4897    1.2412   -1.0050
C   -0.6556    2.2075   -0.0643
C   -0.8357    3.5285   -0.4491
C   -1.0045    4.5089    0.5093
C   -0.9939    4.1750    1.8510
C   -0.8142    2.8595    2.2372
C   -0.6510    1.8743    1.2828
C    0.9686   -0.5203   -0.3308
N    2.0780    0.3130   -0.5148
C    3.4269   -0.1942   -0.2513
C    4.4498    0.9093   -0.5283
C    5.8586    0.3796   -0.2531
C    6.8815    1.4830   -0.5302
C    1.1453   -1.8224    0.1002
C    0.0345   -2.6510    0.2830
C    0.2168   -4.0403    0.7430
O   -0.7496   -4.7595    0.9015
O    1.4551   -4.5121    0.9874
C   -1.2497   -2.1583    0.0351
H   -4.0757    0.8748    1.0036
H   -2.7597    1.7373    0.4145
H   -0.8434    3.7899   -1.4969
H   -1.1447    5.5372    0.2103
H   -1.1257    4.9430    2.5987
H   -0.8056    2.6014    3.2859
H   -0.5111    0.8469    1.5849
H    1.9537    1.2264   -0.8168
H    3.5010   -0.5051    0.7908
H    3.6276   -1.0469   -0.9000
H    4.3757    1.2201   -1.5704
H    4.2491    1.7620    0.1203
H    5.9327    0.0687    0.7890
H    6.0593   -0.4731   -0.9018
H    7.8851    1.1056   -0.3341
H    6.8074    1.7939   -1.5723
H    6.6808    2.3357    0.1185
H    2.1389   -2.1982    0.2946
H    1.5244   -5.4288    1.2871
H   -2.1093   -2.7969    0.1757


