%nprocshared=4
%mem=100MW
%chk=MAZCFXDIYXGRAD-UHFFFAOYSA-N.chk
#b3lyp/6-31+G(d) opt freq

gas opt

0 1
S   -3.2632    0.0748   -0.0960
O   -3.6990   -1.0923   -0.7795
O   -3.6290    1.3896   -0.4921
N   -3.7542   -0.0934    1.4766
C   -1.5019    0.0257   -0.1006
S   -0.4485    1.4227    0.0624
C    0.9755    0.4005   -0.0521
S    2.6535    0.9652    0.0289
O    2.7397    1.9803   -0.9618
O    2.8703    1.2535    1.4033
C    3.5817   -0.5182   -0.4791
C    2.9544   -1.7171    0.2456
C    1.5945   -2.0415   -0.3521
O    1.0587   -3.1896    0.3088
C    0.6178   -0.8886   -0.2073
C   -0.7668   -1.0730   -0.2220
H   -4.3193   -0.8396    1.7310
H   -3.4767    0.5542    2.1432
H    3.5031   -0.6539   -1.5577
H    4.6284   -0.4173   -0.1921
H    3.6089   -2.5829    0.1444
H    2.8364   -1.4786    1.3026
H    1.7181   -2.2684   -1.4111
H    0.1896   -3.4611   -0.0169
H   -1.2126   -2.0509   -0.3292


