%nprocshared=4
%mem=100MW
%chk=MBDMKWJEKDHRRP-UHFFFAOYSA-N.chk
#b3lyp/6-31+G(d) opt freq

gas opt

0 1
Cl   -4.5672   -2.4751    0.3522
C   -3.8387   -0.8994    0.3540
N   -2.5285   -0.7664    0.5063
C   -1.9629    0.4303    0.5087
N   -0.5867    0.5285    0.6710
N    0.1712   -0.6199    0.9348
S    0.7123   -1.5604   -0.3162
O    1.6309   -2.4870    0.2465
O   -0.4396   -1.9553   -1.0487
C    1.6485   -0.5183   -1.3850
C    2.8007    0.1140   -0.9130
C    3.2392   -0.0885    0.4830
O    2.5340   -0.7028    1.2581
O    4.4212    0.4082    0.8965
C    4.8415    0.0728    2.2453
C    6.1379    0.8155    2.5749
C    3.5365    0.9380   -1.7666
C    3.1215    1.1224   -3.0694
C    1.9791    0.4929   -3.5305
C    1.2481   -0.3297   -2.6913
C    0.0194    1.7284    0.5747
O    1.2207    1.8141    0.7165
N   -2.6756    1.5362    0.3598
C   -3.9926    1.4775    0.2025
O   -4.7176    2.6124    0.0505
C   -4.0000    3.8480    0.0687
C   -4.6183    0.2325    0.1906
H    0.3790   -0.8642    1.8503
H    4.0649    0.3664    2.9515
H    5.0102   -1.0017    2.3167
H    6.9145    0.5219    1.8687
H    5.9693    1.8900    2.5035
H    6.4535    0.5638    3.5874
H    4.4283    1.4303   -1.4079
H    3.6896    1.7599   -3.7307
H    1.6587    0.6407   -4.5512
H    0.3574   -0.8184   -3.0577
H   -0.5649    2.6137    0.3714
H   -3.4852    3.9550    1.0235
H   -3.2700    3.8562   -0.7406
H   -4.6975    4.6752   -0.0627
H   -5.6880    0.1531    0.0644


