%nprocshared=4
%mem=100MW
%chk=MBDUIEKYVPVZJH-UHFFFAOYSA-N.chk
#b3lyp/6-31+G(d) opt freq

gas opt

0 1
S    0.0000    0.1699   -0.0000
O   -0.0000    0.8887   -1.2258
O    0.0000    0.8887    1.2258
C   -1.4090   -0.9727   -0.0000
C   -2.7136   -0.1735    0.0000
C    1.4090   -0.9727   -0.0000
C    2.7136   -0.1735    0.0000
H   -1.3675   -1.6006   -0.8900
H   -1.3675   -1.6006    0.8900
H   -3.5603   -0.8600    0.0000
H   -2.7551    0.4545    0.8900
H   -2.7551    0.4545   -0.8900
H    1.3675   -1.6006    0.8900
H    1.3675   -1.6006   -0.8900
H    2.7551    0.4545   -0.8900
H    2.7551    0.4545    0.8900
H    3.5603   -0.8600    0.0000


