%nprocshared=4
%mem=100MW
%chk=MFOUDYKPLGXPGO-UHFFFAOYSA-N.chk
#b3lyp/6-31+G(d) opt freq

gas opt

0 1
Cl   -3.8083   -0.9164    0.0296
C   -2.5368    0.3607    0.0855
C   -1.1769   -0.2793   -0.0246
O   -1.0802   -1.4836   -0.1306
N   -0.0681    0.4867   -0.0053
C   -0.1867    1.9469    0.0067
C    0.5623    2.5094    1.2165
C    0.4171    2.5182   -1.2778
C    1.1962   -0.1127    0.0033
C    1.8195   -0.4051    1.2093
C    3.0675   -0.9967    1.2144
C    3.6964   -1.2978    0.0202
C    3.0786   -1.0074   -1.1824
C    1.8280   -0.4215   -1.1942
H   -2.6807    1.0532   -0.7438
H   -2.6079    0.9031    1.0283
H   -1.2386    2.2255    0.0689
H    1.6291    2.3150    1.1059
H    0.3936    3.5843    1.2806
H    0.1978    2.0296    2.1248
H   -0.1545    2.1653   -2.1362
H    0.3839    3.6071   -1.2419
H    1.4521    2.1891   -1.3703
H    1.3290   -0.1698    2.1423
H    3.5529   -1.2240    2.1520
H    4.6723   -1.7604    0.0268
H    3.5726   -1.2435   -2.1133
H    1.3460   -0.1950   -2.1338


