%nprocshared=4
%mem=100MW
%chk=MGWAVDBGNNKXQV-UHFFFAOYSA-N.chk
#b3lyp/6-31+G(d) opt freq

gas opt

0 1
O    1.1789   -0.5022   -1.5396
C    1.4993    0.1958   -0.5988
O    2.5674   -0.1351    0.1524
C    3.2880   -1.3392   -0.2205
C    4.4600   -1.5503    0.7401
C    5.1438   -2.8823    0.4254
C    5.4659   -0.4092    0.5759
C    0.7209    1.4121   -0.2819
C   -0.6677    1.3277   -0.0641
C   -1.3561    0.0222   -0.1510
O   -0.7108   -0.9958   -0.3001
O   -2.6990   -0.0381   -0.0647
C   -3.3072   -1.3533   -0.1581
C   -4.8269   -1.2220   -0.0400
C   -5.4758   -2.5896   -0.2626
C   -5.1874   -0.7076    1.3551
C   -1.3882    2.4808    0.2340
C   -0.7399    3.6995    0.3146
C    0.6242    3.7824    0.1007
C    1.3572    2.6469   -0.1913
H    2.6161   -2.1958   -0.1678
H    3.6661   -1.2360   -1.2377
H    4.0910   -1.5646    1.7657
H    5.5127   -2.8679   -0.6001
H    5.9787   -3.0327    1.1098
H    4.4271   -3.6952    0.5424
H    5.8349   -0.3949   -0.4496
H    4.9788    0.5397    0.8001
H    6.3008   -0.5597    1.2604
H   -3.0549   -1.8029   -1.1185
H   -2.9332   -1.9846    0.6480
H   -5.1905   -0.5207   -0.7910
H   -5.1122   -3.2909    0.4884
H   -6.5585   -2.4961   -0.1785
H   -5.2190   -2.9561   -1.2565
H   -4.7252    0.2667    1.5138
H   -6.2702   -0.6140    1.4393
H   -4.8239   -1.4089    2.1062
H   -2.4535    2.4237    0.4019
H   -1.3021    4.5922    0.5458
H    1.1204    4.7395    0.1658
H    2.4219    2.7193   -0.3571


