%nprocshared=4
%mem=100MW
%chk=MLKXDPUZXIRXEP-RQZCQDPDSA-N.chk
#b3lyp/6-31+G(d) opt freq

gas opt

0 1
S    5.8152    0.1382    0.4565
O    6.5748   -0.6591   -0.4415
C    5.7608    1.8469   -0.1499
C    4.1677   -0.4285    0.1932
C    3.8304   -1.0296   -1.0074
C    2.5439   -1.4754   -1.2220
C    1.5770   -1.3192   -0.2210
C    0.2047   -1.7912   -0.4403
C   -0.8521   -0.9872   -0.1247
C   -0.7960    0.4362    0.2313
C   -2.0460    0.8721    0.4732
C   -2.4106    2.2799    0.8685
C   -2.7950    3.0632   -0.3603
O   -2.7750    2.5326   -1.4456
O   -3.1596    4.3502   -0.2489
C   -3.0002   -0.2260    0.2940
C   -2.2769   -1.3781   -0.0809
C   -2.9463   -2.5731   -0.3158
C   -4.3192   -2.6296   -0.1816
C   -5.0365   -1.4997    0.1870
F   -6.3796   -1.5712    0.3142
C   -4.3897   -0.3019    0.4199
C    0.4556    1.2716    0.3125
C    1.9271   -0.7103    0.9907
C    3.2196   -0.2751    1.1903
H    5.4800    1.8499   -1.2031
H    5.0265    2.4128    0.4235
H    6.7432    2.3049   -0.0344
H    4.5773   -1.1493   -1.7782
H    2.2822   -1.9435   -2.1594
H    0.0312   -2.7747   -0.8514
H   -3.2511    2.2564    1.5621
H   -1.5557    2.7551    1.3496
H   -3.3975    4.8112   -1.0650
H   -2.3938   -3.4555   -0.6032
H   -4.8385   -3.5587   -0.3647
H   -4.9558    0.5721    0.7063
H    1.1943    0.8888   -0.3917
H    0.2187    2.3061    0.0640
H    0.8591    1.2241    1.3239
H    1.1875   -0.5856    1.7677
H    3.4914    0.1947    2.1241


