%nprocshared=4
%mem=100MW
%chk=MOCKWYUCPREFCZ-UHFFFAOYSA-N.chk
#b3lyp/6-31+G(d) opt freq

gas opt

0 1
O    1.2263    1.5348    0.4619
C    1.6504    0.4423    0.1377
N    2.9770    0.2050    0.1453
N    3.4535   -1.0223   -0.2189
N    0.7934   -0.5330   -0.2240
C   -0.5869   -0.3205   -0.1342
C   -1.1157    0.9369   -0.3948
C   -2.4784    1.1433   -0.3058
C   -3.3159    0.0997    0.0429
C   -2.7925   -1.1535    0.3031
C   -1.4312   -1.3678    0.2102
H    3.5936    0.9058    0.4095
H    3.1344   -1.2745   -1.1423
H    4.4606   -1.0500   -0.1642
H    1.1334   -1.3823   -0.5466
H   -0.4620    1.7525   -0.6665
H   -2.8903    2.1209   -0.5083
H   -4.3811    0.2638    0.1126
H   -3.4492   -1.9666    0.5752
H   -1.0230   -2.3468    0.4135


