%nprocshared=4
%mem=100MW
%chk=MORLYCDUFHDZKO-UHFFFAOYSA-N.chk
#b3lyp/6-31+G(d) opt freq

gas opt

0 1
P    0.1207    0.9080   -0.0826
O   -0.0303    1.6189   -1.3719
O    0.0111    1.9635    1.1282
C   -1.1962   -0.3421    0.0799
C   -2.5604    0.3292   -0.0905
C   -3.6490   -0.7042    0.0439
O   -3.3630   -1.8591    0.2544
O   -4.9364   -0.3417   -0.0702
C    1.7396    0.0915   -0.0283
C    2.3814   -0.0911    1.1823
C    3.6151   -0.7133    1.2237
C    4.2069   -1.1533    0.0544
C    3.5647   -0.9715   -1.1562
C    2.3290   -0.3532   -1.1970
H    0.1012    1.5666    2.0053
H   -1.0687   -1.1059   -0.6871
H   -1.1390   -0.8039    1.0656
H   -2.6879    1.0930    0.6766
H   -2.6176    0.7910   -1.0761
H   -5.5990   -1.0397    0.0235
H    1.9191    0.2526    2.0958
H    4.1168   -0.8554    2.1694
H    5.1710   -1.6388    0.0866
H    4.0272   -1.3149   -2.0697
H    1.8273   -0.2111   -2.1428


