%nprocshared=4
%mem=100MW
%chk=MQIUGAXCHLFZKX-UHFFFAOYSA-N.chk
#b3lyp/6-31+G(d) opt freq

gas opt

0 1
O    1.1328    1.3278   -1.6954
C    1.5076    1.9087   -0.6969
O    2.6455    1.5292   -0.0840
C    3.3723    0.4184   -0.6724
C    4.6272    0.1343    0.1554
C    5.3930   -1.0362   -0.4646
C    6.6480   -1.3202    0.3632
C    7.4138   -2.4907   -0.2569
C    8.6688   -2.7748    0.5709
C    9.4346   -3.9452   -0.0491
C   10.6896   -4.2293    0.7787
C    0.7182    3.0365   -0.1576
C   -0.6435    2.8622    0.1555
C   -1.2926    1.5503   -0.0530
O   -0.6284    0.5908   -0.3893
O   -2.6208    1.4194    0.1298
C   -3.1901    0.1023   -0.0928
C   -4.6981    0.1490    0.1615
C   -5.2981   -1.2388   -0.0732
C   -6.8061   -1.1921    0.1811
C   -7.4060   -2.5799   -0.0535
C   -8.9140   -2.5332    0.2008
C   -9.5140   -3.9210   -0.0338
C  -11.0220   -3.8743    0.2204
C   -1.3747    3.9325    0.6631
C   -0.7632    5.1574    0.8569
C    0.5745    5.3286    0.5493
C    1.3180    4.2755    0.0492
H    2.7363   -0.4668   -0.6835
H    3.6597    0.6720   -1.6928
H    5.2632    1.0195    0.1665
H    4.3398   -0.1193    1.1757
H    4.7570   -1.9213   -0.4757
H    5.6805   -0.7825   -1.4850
H    7.2840   -0.4351    0.3742
H    6.3605   -1.5739    1.3835
H    6.7778   -3.3759   -0.2679
H    7.7013   -2.2371   -1.2772
H    9.3048   -1.8896    0.5820
H    8.3813   -3.0284    1.5913
H    8.7986   -4.8304   -0.0602
H    9.7221   -3.6916   -1.0694
H   10.4021   -4.4829    1.7991
H   11.2351   -5.0632    0.3370
H   11.3256   -3.3441    0.7898
H   -3.0046   -0.2044   -1.1222
H   -2.7288   -0.6128    0.5882
H   -4.8837    0.4558    1.1908
H   -5.1595    0.8642   -0.5196
H   -5.1125   -1.5455   -1.1025
H   -4.8367   -1.9539    0.6079
H   -6.9916   -0.8853    1.2105
H   -7.2674   -0.4769   -0.4999
H   -7.2205   -2.8866   -1.0829
H   -6.9447   -3.2950    0.6275
H   -9.0996   -2.2264    1.2301
H   -9.3754   -1.8180   -0.4803
H   -9.3284   -4.2277   -1.0632
H   -9.0526   -4.6361    0.6472
H  -11.2075   -3.5675    1.2498
H  -11.4833   -3.1591   -0.4606
H  -11.4494   -4.8630    0.0533
H   -2.4196    3.8062    0.9052
H   -1.3336    5.9857    1.2505
H    1.0420    6.2897    0.7043
H    2.3620    4.4165   -0.1887


