%nprocshared=4
%mem=100MW
%chk=MQJKPEGWNLWLTK-UHFFFAOYSA-N.chk
#b3lyp/6-31+G(d) opt freq

gas opt

0 1
S    0.0000    1.5138   -0.0000
O   -0.0001    2.1901   -1.2497
O    0.0001    2.1901    1.2497
C   -1.4184    0.4684    0.0001
C   -1.9736    0.0592    1.1986
C   -3.0853   -0.7602    1.2023
C   -3.6458   -1.1732    0.0003
N   -4.7704   -2.0015    0.0003
C   -3.0855   -0.7602   -1.2019
C   -1.9772    0.0637   -1.1983
C    1.4184    0.4684   -0.0001
C    1.9736    0.0592   -1.1986
C    3.0853   -0.7602   -1.2023
C    3.6458   -1.1732   -0.0003
N    4.7704   -2.0015   -0.0003
C    3.0855   -0.7602    1.2019
C    1.9772    0.0637    1.1983
H   -1.5372    0.3803    2.1329
H   -3.5183   -1.0798    2.1387
H   -5.1610   -2.2890    0.8404
H   -5.1609   -2.2893   -0.8397
H   -3.5188   -1.0795   -2.1382
H   -1.5413    0.3855   -2.1326
H    1.5372    0.3803   -2.1329
H    3.5183   -1.0798   -2.1387
H    5.1610   -2.2890   -0.8404
H    5.1609   -2.2893    0.8397
H    3.5188   -1.0795    2.1382
H    1.5413    0.3855    2.1326


