%nprocshared=4
%mem=100MW
%chk=MSXVEPNJUHWQHW-UHFFFAOYSA-N.chk
#b3lyp/6-31+G(d) opt freq

gas opt

0 1
O   -0.4651    0.7280    1.2167
C   -0.4112   -0.0132   -0.0039
C    0.8214    0.4116   -0.8046
C    2.0868    0.0216   -0.0381
C   -0.3248   -1.5081    0.3106
C   -1.6726    0.2632   -0.8245
H   -0.5210    1.6854    1.0933
H    0.8151   -0.0878   -1.7735
H    0.8043    1.4914   -0.9522
H    2.1038   -1.0582    0.1096
H    2.9649    0.3242   -0.6085
H    2.0931    0.5209    0.9308
H   -1.2029   -1.8107    0.8810
H   -0.2837   -2.0734   -0.6204
H    0.5738   -1.7050    0.8952
H   -1.7342    1.3282   -1.0485
H   -1.6316   -0.3022   -1.7555
H   -2.5507   -0.0394   -0.2540


