%nprocshared=4
%mem=100MW
%chk=MTCPZNVSDFCBBE-UHFFFAOYSA-N.chk
#b3lyp/6-31+G(d) opt freq

gas opt

0 1
Cl   -0.0238   -1.9498    1.8869
C   -0.8864   -0.8670    0.8395
C   -0.1861   -0.0002    0.0011
C    1.2973   -0.0011    0.0010
C    1.9968   -0.8398   -0.8660
Cl    1.1336   -1.8865   -1.9490
C    3.3783   -0.8357   -0.8616
C    4.0674   -0.0023    0.0006
C    3.3793    0.8318    0.8629
C    1.9979    0.8410    0.8639
Cl    1.1358    1.8891    1.9466
C   -0.8854    0.8670   -0.8377
Cl   -0.0217    1.9490   -1.8851
C   -2.2666    0.8632   -0.8338
C   -2.9566    0.0008    0.0005
Cl   -4.6926    0.0014    0.0001
C   -2.2676   -0.8663    0.8310
H    3.9212   -1.4848   -1.5327
H    5.1474   -0.0032    0.0008
H    3.9230    1.4803    1.5339
H   -2.8093    1.5347   -1.4828
H   -2.8109   -1.5373    1.4797


