%nprocshared=4
%mem=100MW
%chk=MUBZPKHOEPUJKR-UHFFFAOYSA-N.chk
#b3lyp/6-31+G(d) opt freq

gas opt

0 1
O    1.1392   -1.2793    0.0010
C    0.7346   -0.1363    0.0018
O    1.6085    0.8867   -0.0017
C   -0.7346    0.1363    0.0004
O   -1.1392    1.2793    0.0012
O   -1.6085   -0.8867   -0.0017
H    2.5488    0.6608   -0.0048
H   -2.5488   -0.6608   -0.0025


