%nprocshared=4
%mem=100MW
%chk=MUKSMBAVCDPKRC-UHFFFAOYSA-N.chk
#b3lyp/6-31+G(d) opt freq

gas opt

0 1
O   -1.4443   -2.7155    0.2855
C   -0.7860   -1.6993    0.1750
N    0.5331   -1.8278    0.1088
C    1.0729   -3.1866    0.2012
C    1.4539   -0.7911   -0.0408
C    1.2936    0.4224    0.6161
O    0.1990    0.6776    1.3737
C   -1.0070    0.7148    0.7642
N   -1.7028    1.8422    0.7640
C   -2.8631    1.9481    0.1479
C   -3.4156    0.8705   -0.5330
N   -4.6401    1.0047   -1.1983
C   -2.7370   -0.3421   -0.5454
C   -1.5115   -0.4241    0.1191
C    2.2587    1.4114    0.4814
C    3.3606    1.2041   -0.3267
C    4.4037    2.2823   -0.4690
C    3.5063    0.0083   -1.0038
C    2.5587   -0.9868   -0.8624
H    0.2534   -3.8962    0.3145
H    1.6313   -3.4182   -0.7058
H    1.7358   -3.2563    1.0637
H   -3.3932    2.8887    0.1725
H   -5.1083    1.8541   -1.1859
H   -5.0202    0.2482   -1.6718
H   -3.1455   -1.2000   -1.0589
H    2.1477    2.3466    1.0100
H    5.1684    2.1514    0.2967
H    4.8624    2.2161   -1.4556
H    3.9350    3.2592   -0.3510
H    4.3615   -0.1481   -1.6447
H    2.6768   -1.9210   -1.3912


