%nprocshared=4
%mem=100MW
%chk=MVPPADPHJFYWMZ-UHFFFAOYSA-N.chk
#b3lyp/6-31+G(d) opt freq

gas opt

0 1
Cl   -2.1586    0.0000   -0.0006
C   -0.4226   -0.0000   -0.0005
C    0.2694    1.1980    0.0006
C    1.6516    1.1974    0.0007
C    2.3425   -0.0000   -0.0008
C    1.6515   -1.1974   -0.0024
C    0.2694   -1.1980    0.0043
H   -0.2703    2.1335    0.0011
H    2.1919    2.1325    0.0016
H    3.4225   -0.0000   -0.0011
H    2.1919   -2.1325   -0.0039
H   -0.2703   -2.1335    0.0030


