%nprocshared=4
%mem=100MW
%chk=MWPLVEDNUUSJAV-UHFFFAOYSA-N.chk
#b3lyp/6-31+G(d) opt freq

gas opt

0 1
C   -1.2044    0.7333   -0.0013
C   -1.2044   -0.7333   -0.0006
C   -0.0000   -1.4346   -0.0002
C    1.2044   -0.7333   -0.0003
C    1.2044    0.7333   -0.0009
C    0.0000    1.4346   -0.0014
C    2.4423    1.4114   -0.0004
C    3.5970    0.6976    0.0006
C    3.5970   -0.6976    0.0006
C    2.4423   -1.4114    0.0006
C   -2.4423   -1.4114    0.0000
C   -3.5970   -0.6976    0.0001
C   -3.5970    0.6976   -0.0011
C   -2.4422    1.4114    0.0041
H    0.0000   -2.5146    0.0006
H   -0.0000    2.5146   -0.0023
H    2.4706    2.4910   -0.0012
H    4.5403    1.2234    0.0010
H    4.5403   -1.2234    0.0010
H    2.4706   -2.4911    0.0010
H   -2.4707   -2.4910    0.0002
H   -4.5403   -1.2234    0.0006
H   -4.5403    1.2235   -0.0018
H   -2.4706    2.4910    0.0030


