%nprocshared=4
%mem=100MW
%chk=MZZBPDKVEFVLFF-UHFFFAOYSA-N.chk
#b3lyp/6-31+G(d) opt freq

gas opt

0 1
Cl   -0.9397   -3.0625    0.0003
C   -0.8006   -1.3321    0.0009
N    0.3953   -0.7660    0.0009
C    0.5052    0.5601    0.0009
N    1.7528    1.1498    0.0004
C    2.9572    0.3158   -0.0000
C    4.1507    1.1774   -0.0005
N    5.0717    1.8424   -0.0008
C    2.9663   -0.5675    1.2492
C    2.9654   -0.5674   -1.2493
N   -0.5878    1.3160    0.0009
C   -1.7872    0.7445    0.0008
N   -2.9246    1.5259    0.0004
C   -4.2468    0.8949    0.0004
C   -5.3283    1.9771   -0.0002
N   -1.8905   -0.5824   -0.0042
H    1.8323    2.1166    0.0004
H    2.0826   -1.2056    1.2495
H    3.8625   -1.1881    1.2488
H    2.9605    0.0617    2.1392
H    2.9589    0.0619   -2.1393
H    3.8615   -1.1880   -1.2497
H    2.0817   -1.2055   -1.2490
H   -2.8487    2.4929    0.0001
H   -4.3532    0.2744   -0.8894
H   -4.3535    0.2750    0.8905
H   -5.2219    2.5976    0.8896
H   -5.2216    2.5970   -0.8904
H   -6.3120    1.5077   -0.0002


