%nprocshared=4
%mem=100MW
%chk=NBFMTHWVRBOVPE-UHFFFAOYSA-N.chk
#b3lyp/6-31+G(d) opt freq

gas opt

0 1
Cl   -5.2936    0.4576    0.0000
C   -3.6408   -0.0735   -0.0004
C   -2.6158    0.8574   -0.0005
C   -1.2975    0.4344   -0.0009
O   -0.2884    1.3464   -0.0004
C    1.0060    0.9276   -0.0004
C    1.2974   -0.4334   -0.0009
O    0.2883   -1.3454   -0.0013
C   -1.0060   -0.9266   -0.0013
C   -2.0347   -1.8532   -0.0016
C   -3.3506   -1.4254    0.0049
C    2.6154   -0.8573   -0.0004
C    3.6409    0.0731    0.0005
Cl    5.2934   -0.4587    0.0004
C    3.3510    1.4251    0.0009
C    2.0353    1.8536    0.0005
H   -2.8446    1.9129   -0.0005
H   -1.8102   -2.9096   -0.0019
H   -4.1525   -2.1488    0.0050
H    2.8436   -1.9129   -0.0004
H    4.1532    2.1482    0.0016
H    1.8113    2.9101    0.0008


