%nprocshared=4
%mem=100MW
%chk=NCYHCGGUQGDEQW-UHFFFAOYSA-N.chk
#b3lyp/6-31+G(d) opt freq

gas opt

0 1
Cl   -1.5909   -2.5894    0.1016
C   -0.7063   -1.0967    0.0459
C    0.6752   -1.1149   -0.0439
Cl    1.5200   -2.6304   -0.1007
C    1.3837    0.0733   -0.0890
Cl    3.1158    0.0473   -0.2028
C    0.7099    1.2844   -0.0437
O    1.4052    2.4529   -0.0884
C    1.7774    3.0346    1.1627
C   -0.6776    1.3028    0.0470
O   -1.3418    2.4892    0.0917
C   -1.6807    3.0904   -1.1596
C   -1.3835    0.1098    0.0857
Cl   -3.1158    0.1295    0.1983
H    2.2913    3.9794    0.9855
H    0.8836    3.2137    1.7603
H    2.4411    2.3545    1.6965
H   -2.2718    3.9890   -0.9827
H   -0.7685    3.3551   -1.6944
H   -2.2602    2.3859   -1.7561


