%nprocshared=4
%mem=100MW
%chk=NHTGQOXRZFUGJX-UHFFFAOYSA-N.chk
#b3lyp/6-31+G(d) opt freq

gas opt

0 1
Cl   -2.5675   -1.5541   -0.0031
C   -1.0573   -0.6981   -0.0030
C   -1.0576    0.6977   -0.0013
Cl   -2.5682    1.5530   -0.0001
C    0.1111    1.3985   -0.0002
Cl    0.0865    3.1343    0.0030
C    1.3376    0.7095   -0.0012
N    2.5003    1.3695    0.0004
C    3.6299    0.6986   -0.0002
C    3.6302   -0.6973   -0.0029
N    2.5008   -1.3685   -0.0049
C    1.3378   -0.7088   -0.0034
C    0.1117   -1.3984    0.0012
Cl    0.0879   -3.1342    0.0058
H    4.5685    1.2328    0.0011
H    4.5689   -1.2312   -0.0038


