%nprocshared=4
%mem=100MW
%chk=NKDDWNXOKDWJAK-UHFFFAOYSA-N.chk
#b3lyp/6-31+G(d) opt freq

gas opt

0 1
O    0.9869   -0.0852   -0.6224
C    0.0000   -0.9103   -0.0000
O   -0.9869   -0.0852    0.6224
C   -1.8960    0.5262   -0.2951
C    1.8960    0.5262    0.2951
H   -0.4747   -1.5396   -0.7528
H    0.4747   -1.5396    0.7528
H   -1.3415    1.1568   -0.9902
H   -2.4268   -0.2471   -0.8504
H   -2.6129    1.1354    0.2553
H    1.3415    1.1568    0.9902
H    2.4268   -0.2471    0.8504
H    2.6129    1.1354   -0.2553


