%nprocshared=4
%mem=100MW
%chk=NMWSKOLWZZWHPL-UHFFFAOYSA-N.chk
#b3lyp/6-31+G(d) opt freq

gas opt

0 1
Cl   -3.5050    1.2743    0.2535
C   -2.2562    0.0882    0.0352
C   -0.9285    0.4664    0.0893
C    0.0719   -0.4868   -0.0860
C    1.4998   -0.0868   -0.0285
C    2.4315   -0.9092    0.6015
C    3.7583   -0.5325    0.6517
C    4.1637    0.6593    0.0784
C    3.2430    1.4796   -0.5483
C    1.9146    1.1099   -0.6094
C   -0.2727   -1.8176   -0.3152
C   -1.6019   -2.1849   -0.3674
C   -2.5921   -1.2361   -0.1871
H   -0.6669    1.4991    0.2669
H    2.1160   -1.8396    1.0501
H    4.4814   -1.1692    1.1398
H    5.2028    0.9506    0.1205
H    3.5648    2.4092   -0.9940
H    1.1966    1.7509   -1.0993
H    0.4994   -2.5602   -0.4522
H   -1.8695   -3.2159   -0.5454
H   -3.6311   -1.5280   -0.2284


