%nprocshared=4
%mem=100MW
%chk=NOOBQTYVTDBXTL-UHFFFAOYSA-N.chk
#b3lyp/6-31+G(d) opt freq

gas opt

0 1
S   -2.8199   -0.0313   -0.0045
O   -3.2384    0.5013   -1.2537
O   -3.2449    0.4937    1.2457
N   -3.2494   -1.6306   -0.0105
C   -1.0592    0.0359    0.0003
S   -0.1122    1.5173    0.0073
C    1.3785    0.5781    0.0090
C    1.0421   -0.7797    0.0041
N   -0.2895   -0.9869    0.0047
C    2.0855   -1.7299    0.0044
C    3.3865   -1.3310    0.0093
C    3.7157    0.0215    0.0146
O    5.0200    0.4050    0.0202
C    2.7147    0.9731    0.0133
H   -2.5639   -2.3169   -0.0108
H   -4.1865   -1.8811   -0.0137
H    1.8492   -2.7838    0.0011
H    4.1723   -2.0719    0.0095
H    5.4003    0.5186   -0.8616
H    2.9676    2.0230    0.0171


