%nprocshared=4
%mem=100MW
%chk=NPUKDXXFDDZOKR-UHFFFAOYSA-N.chk
#b3lyp/6-31+G(d) opt freq

gas opt

0 1
O   -3.4198   -0.4779   -0.9869
C   -2.3718   -0.2334   -0.4206
O   -2.1386    1.0044    0.0617
C   -3.1830    1.9945   -0.1311
C   -2.7414    3.3269    0.4777
C   -1.3643   -1.2855   -0.2568
N   -0.1330   -1.1655    0.3591
C    0.4179    0.0435    0.9762
C    0.6938   -0.2206    2.4578
C    1.7033    0.4193    0.2851
C    1.8194    1.6476   -0.3383
C    2.9984    1.9922   -0.9723
C    4.0615    1.1088   -0.9825
C    3.9458   -0.1192   -0.3583
C    2.7682   -0.4621    0.2794
C    0.4638   -2.3682    0.2848
N   -0.3290   -3.2042   -0.3361
C   -1.4578   -2.5833   -0.6778
H   -3.3671    2.1256   -1.1975
H   -4.0977    1.6576    0.3567
H   -1.8267    3.6639   -0.0102
H   -3.5254    4.0702    0.3329
H   -2.5573    3.1959    1.5440
H   -0.2984    0.8594    0.8798
H    1.1037    0.6790    2.9170
H   -0.2359   -0.4923    2.9577
H    1.4101   -1.0364    2.5542
H    0.9888    2.3378   -0.3303
H    3.0888    2.9516   -1.4600
H    4.9824    1.3777   -1.4785
H    4.7762   -0.8096   -0.3666
H    2.6778   -1.4215    0.7670
H    1.4421   -2.6065    0.6754
H   -2.2937   -3.0243   -1.2005


