%nprocshared=4
%mem=100MW
%chk=NQDJXKOVJZTUJA-UHFFFAOYSA-N.chk
#b3lyp/6-31+G(d) opt freq

gas opt

0 1
O   -0.3765   -2.7460    1.5665
C   -0.0851   -1.8035    0.8559
N    1.1462   -1.3257    0.9585
H    1.7254   -1.7548    1.6076
C    1.6965   -0.2728    0.2325
C    3.0097   -0.3711   -0.2175
C    3.8194   -1.6158    0.0395
C    3.5580    0.7001   -0.9080
C    2.7916    1.8273   -1.1241
N    1.5447    1.8898   -0.6978
C    0.9732    0.8826   -0.0525
N   -0.3767    0.9779    0.2869
C   -0.8348    2.0135    1.2164
C   -1.8675    3.0182    0.7015
C   -2.2841    1.9371    1.7007
C   -1.2789    0.0840   -0.2641
N   -2.2749    0.5326   -1.0148
C   -3.1214   -0.2852   -1.6088
C   -3.0080   -1.6571   -1.4721
C   -2.0035   -2.1803   -0.6766
C   -1.1249   -1.2971   -0.0453
H    3.6811   -2.3158   -0.7845
H    4.8742   -1.3529    0.1197
H    3.4887   -2.0789    0.9691
H    4.5737    0.6525   -1.2722
H    3.2183    2.6694   -1.6486
H   -0.0869    2.3770    1.9211
H   -1.7991    4.0426    1.0678
H   -2.2060    2.9087   -0.3288
H   -2.8968    1.1163    1.3278
H   -2.4899    2.2501    2.7243
H   -3.9181    0.1233   -2.2127
H   -3.6974   -2.3141   -1.9814
H   -1.8983   -3.2475   -0.5490


