%nprocshared=4
%mem=100MW
%chk=NQRYJNQNLNOLGT-UHFFFAOYSA-N.chk
#b3lyp/6-31+G(d) opt freq

gas opt

0 1
N    0.0000   -1.3939    0.2334
C   -1.2116   -0.7284   -0.2621
C   -1.2478    0.7140    0.2479
C   -0.0000    1.4545   -0.2410
C    1.2478    0.7140    0.2479
C    1.2116   -0.7284   -0.2621
H    0.0000   -1.4414    1.2413
H   -1.2060   -0.7282   -1.3521
H   -2.0917   -1.2625    0.0962
H   -2.1393    1.2123   -0.1328
H   -1.2674    0.7142    1.3378
H   -0.0000    1.4883   -1.3305
H   -0.0000    2.4697    0.1558
H    2.1393    1.2123   -0.1328
H    1.2674    0.7142    1.3378
H    2.0917   -1.2625    0.0962
H    1.2060   -0.7282   -1.3521


