%nprocshared=4
%mem=100MW
%chk=NRXQIUSYPAHGNM-UHFFFAOYSA-N.chk
#b3lyp/6-31+G(d) opt freq

gas opt

0 1
I   -3.0166    0.6707   -0.0041
C   -1.2048   -0.3811   -0.0021
C    0.0000    0.3119   -0.0033
O    0.0000    1.6697   -0.0053
C    1.2048   -0.3811   -0.0020
I    3.0166    0.6707   -0.0038
C    1.2092   -1.7591    0.0010
C    0.0000   -2.4598    0.0022
C    0.0000   -3.8917    0.0052
N    0.0000   -5.0277    0.0076
C   -1.2092   -1.7591    0.0061
H    0.0001    2.0643    0.8775
H    2.1458   -2.2969    0.0020
H   -2.1458   -2.2968    0.0075


