%nprocshared=4
%mem=100MW
%chk=NTBYINQTYWZXLH-UHFFFAOYSA-N.chk
#b3lyp/6-31+G(d) opt freq

gas opt

0 1
Cl    1.8941   -1.8801    0.0008
C    0.7486   -0.5756    0.0006
C    1.1925    0.7362    0.0004
Cl    2.8947    1.0771   -0.0002
C    0.2789    1.7745    0.0002
C   -1.0766    1.5026    0.0002
C   -1.5196    0.1933    0.0004
N   -2.9710   -0.0964    0.0005
O   -3.7747    0.8188    0.0003
O   -3.3618   -1.2500    0.0007
C   -0.6077   -0.8459   -0.0052
H    0.6244    2.7977    0.0004
H   -1.7897    2.3136    0.0005
H   -0.9546   -1.8687   -0.0053


