%nprocshared=4
%mem=100MW
%chk=NURQLCJSMXZBPC-UHFFFAOYSA-N.chk
#b3lyp/6-31+G(d) opt freq

gas opt

0 1
C    1.7964   -1.4708    0.0015
C    0.5088   -0.6877    0.0011
C    0.5303    0.6988    0.0002
C    1.8366    1.4501   -0.0010
C   -0.6786    1.3774   -0.0000
C   -1.8568    0.6545    0.0007
N   -1.8391   -0.6639    0.0015
C   -0.7081   -1.3423   -0.0040
H    2.1070   -1.6589    1.0292
H    1.6443   -2.4203   -0.5117
H    2.5692   -0.8995   -0.5129
H    2.1510    1.6306   -1.0290
H    1.7082    2.4031    0.5123
H    2.5956    0.8601    0.5128
H   -0.6996    2.4572   -0.0004
H   -2.8027    1.1756    0.0009
H   -0.7334   -2.4220   -0.0035


