%nprocshared=4
%mem=100MW
%chk=NXFQHRVNIOXGAQ-YCRREMRBSA-N.chk
#b3lyp/6-31+G(d) opt freq

gas opt

0 1
O   -5.6240    0.2011    0.0677
N   -4.3982    0.6806    0.0213
O   -4.2010    1.9824   -0.0078
C   -3.2366   -0.2479    0.0080
O   -1.9560    0.1294   -0.0373
C   -1.1627   -0.9672   -0.0363
C    0.2169   -0.9852   -0.0754
N    0.9004    0.1653   -0.1203
N    2.1888    0.1528   -0.0585
C    3.0008    1.2235    0.0046
O    2.6050    2.3714    0.0108
N    4.2933    0.8822    0.0599
C    4.4555   -0.4555    0.0382
O    5.5016   -1.0670    0.0762
C    3.0575   -1.0367   -0.0370
C   -2.0575   -2.1405    0.0152
C   -3.3257   -1.6418    0.0470
H    0.7450   -1.9272   -0.0697
H    5.0234    1.5189    0.1090
H    2.8508   -1.6530    0.8379
H    2.9311   -1.6142   -0.9527
H   -1.7668   -3.1806    0.0290
H   -4.2366   -2.2206    0.0877


