%nprocshared=4
%mem=100MW
%chk=NXQDBZGWYSEGFL-UHFFFAOYSA-N.chk
#b3lyp/6-31+G(d) opt freq

gas opt

0 1
Cl   -6.0119    1.8750    0.1795
C   -4.5496    0.9456    0.0717
C   -3.3481    1.5771   -0.1978
C   -2.1832    0.8401   -0.2837
C   -2.2184   -0.5358   -0.0993
N   -1.0392   -1.2850   -0.1853
C    0.1033   -0.6988   -0.5945
O    0.1294    0.4945   -0.8097
C    1.3485   -1.5261   -0.7846
S    2.6799   -0.4756   -1.4284
P    3.3229    0.5862    0.2901
S    4.6987    1.7524   -0.1789
O    2.0897    1.4265    0.8944
C    1.5984    2.6274    0.2955
O    3.8559   -0.4552    1.3962
C    4.7051   -1.5601    1.0796
C   -1.0469   -2.7064    0.1695
C   -1.6027   -2.8757    1.5849
C   -1.9268   -3.4740   -0.8191
C   -3.4254   -1.1670    0.1711
C   -4.5865   -0.4247    0.2610
H   -3.3213    2.6472   -0.3415
H   -1.2458    1.3334   -0.4943
H    1.6518   -1.9515    0.1721
H    1.1460   -2.3303   -1.4920
H    1.2613    2.4157   -0.7192
H    0.7644    3.0114    0.8828
H    2.3949    3.3709    0.2661
H    5.6660   -1.1892    0.7228
H    4.8586   -2.1676    1.9715
H    4.2385   -2.1661    0.3030
H   -0.0299   -3.0964    0.1295
H   -2.6494   -2.5722    1.6030
H   -1.5222   -3.9207    1.8843
H   -1.0324   -2.2549    2.2759
H   -1.4604   -3.4642   -1.8042
H   -2.0400   -4.5040   -0.4809
H   -2.9070   -3.0007   -0.8765
H   -3.4554   -2.2370    0.3148
H   -5.5255   -0.9152    0.4713


