%nprocshared=4
%mem=100MW
%chk=NYHAZDHVIPVSDM-UHFFFAOYSA-N.chk
#b3lyp/6-31+G(d) opt freq

gas opt

0 1
O    2.9408    1.2577   -0.7892
N    1.6472    1.5585   -0.2978
C    0.8426    0.6004    0.0366
C    1.2383   -0.8235   -0.0803
N    2.4118   -1.2342    0.2821
O    3.3533   -0.3150    0.8053
C    0.2026   -1.7751   -0.6453
C   -1.1351   -1.4995    0.0488
C   -1.5364   -0.0388   -0.1601
C   -2.9443    0.1861    0.3951
C   -3.3471    1.6474    0.1868
C   -3.9325   -0.7246   -0.3363
C   -0.5473    0.8802    0.5726
H    3.4679    2.0372   -1.0120
H    4.2000   -0.7142    1.0476
H    0.1002   -1.6117   -1.7181
H    0.5084   -2.8043   -0.4577
H   -1.9023   -2.1496   -0.3719
H   -1.0376   -1.6994    1.1158
H   -1.5261    0.1909   -1.2255
H   -2.9562   -0.0458    1.4601
H   -3.3352    1.8793   -0.8781
H   -4.3501    1.8077    0.5824
H   -2.6431    2.2962    0.7079
H   -3.9205   -0.4926   -1.4013
H   -3.6454   -1.7656   -0.1879
H   -4.9354   -0.5643    0.0592
H   -0.5819    0.6779    1.6431
H   -0.8076    1.9223    0.3867


