%nprocshared=4
%mem=100MW
%chk=NZDAAPUTURAWII-UHFFFAOYSA-N.chk
#b3lyp/6-31+G(d) opt freq

gas opt

0 1
O    2.0359   -1.1211    0.0068
C    2.2159    0.0777    0.0058
N    3.4701    0.5709    0.0011
C    4.5244   -0.2688   -0.0025
O    4.3444   -1.4676   -0.0015
C    5.9269    0.2826   -0.0077
C    1.0371    1.0166    0.0036
O   -0.1944    0.2473    0.0029
C   -1.3490    0.9412    0.0010
O   -1.3277    2.1558   -0.0002
C   -2.6411    0.2252    0.0002
C   -3.8398    0.9414   -0.0018
C   -5.0428    0.2664   -0.0030
C   -5.0635   -1.1171   -0.0017
C   -3.8794   -1.8330    0.0008
C   -2.6693   -1.1708   -0.0043
H    3.6141    1.5301    0.0003
H    6.0802    0.8940    0.8815
H    6.6410   -0.5408   -0.0101
H    6.0737    0.8935   -0.8984
H    1.0720    1.6457    0.8930
H    1.0740    1.6440   -0.8870
H   -3.8250    2.0213   -0.0021
H   -5.9707    0.8191   -0.0045
H   -6.0081   -1.6406   -0.0022
H   -3.9027   -2.9128    0.0026
H   -1.7458   -1.7308   -0.0023


