%nprocshared=4
%mem=100MW
%chk=OBMLHUPNRURLOK-UHFFFAOYSA-N.chk
#b3lyp/6-31+G(d) opt freq

gas opt

0 1
O    5.1366    0.9765   -0.2365
C    4.1219    0.5686    0.6768
C    2.7535    0.5420   -0.0419
C    2.9983   -0.0466   -1.4323
C    1.9772   -0.4180    0.8811
C    0.5940   -0.7160    0.3937
C    0.1144    0.3682   -0.5766
C   -1.4066    0.2585   -0.7309
C   -1.7707    0.3768   -2.2134
C   -1.8788   -1.0772   -0.1511
C   -3.3412   -1.3255   -0.5258
C   -4.2140   -0.1232   -0.2193
S   -4.3547    0.4645    1.4858
C   -3.5864    1.2392    0.0301
C   -2.0674    1.3905    0.0619
C   -1.0366   -2.2418   -0.6744
C    0.4341   -2.0743   -0.2792
C    0.5487    1.7390   -0.0805
C    2.0768    1.8859   -0.1330
C    2.9509   -1.5993    1.0047
C    4.3358   -0.9027    1.1119
H    6.0219    1.0146    0.1505
H    4.0727    1.2250    1.5373
H    3.5082   -1.0052   -1.3364
H    2.0440   -0.1917   -1.9386
H    3.6172    0.6376   -2.0127
H    1.8990    0.0511    1.8864
H   -0.0796   -0.6971    1.2733
H    0.5365    0.1873   -1.5675
H   -1.2871   -0.4250   -2.7714
H   -2.8517    0.2994   -2.3293
H   -1.4324    1.3402   -2.5948
H   -1.8009   -1.0415    0.9446
H   -3.4285   -1.5888   -1.5760
H   -3.7107   -2.1740    0.0646
H   -5.1451   -0.0993   -0.7896
H   -4.1163    2.0950   -0.3892
H   -1.7283    1.3579    1.0959
H   -1.8008    2.3494   -0.3811
H   -1.4085   -3.1728   -0.2402
H   -1.1119   -2.3021   -1.7569
H    1.0533   -2.1307   -1.1716
H    0.7114   -2.8676    0.4143
H    0.0949    2.5157   -0.7035
H    0.2101    1.8810    0.9500
H    2.4073    2.5217    0.6989
H    2.3631    2.3824   -1.0683
H    2.7431   -2.1676    1.9145
H    2.9052   -2.2500    0.1364
H    5.0504   -1.3888    0.4484
H    4.6933   -0.9404    2.1402


