%nprocshared=4
%mem=100MW
%chk=OKKJLVBELUTLKV-UHFFFAOYSA-N.chk
#b3lyp/6-31+G(d) opt freq

gas opt

0 1
O    0.6896   -0.0677   -0.0000
C   -0.7370    0.0147   -0.0000
H    1.1333    0.7916    0.0000
H   -1.0701    0.5487    0.8900
H   -1.0701    0.5487   -0.8900
H   -1.1590   -0.9902   -0.0000


