%nprocshared=4
%mem=100MW
%chk=ONKUXPIBXRRIDU-UHFFFAOYSA-N.chk
#b3lyp/6-31+G(d) opt freq

gas opt

0 1
O    5.5707   -1.3383    0.0033
C    5.6176   -0.1309    0.0047
O    6.8053    0.4946    0.0004
C    7.9914   -0.3430   -0.0058
C    9.2400    0.5412   -0.0100
C    4.3428    0.6727    0.0050
C    3.1421   -0.2756    0.0033
C    1.8478    0.5403    0.0036
C    0.6471   -0.4080    0.0018
C   -0.6471    0.4080    0.0021
C   -1.8478   -0.5403    0.0004
C   -3.1421    0.2756    0.0007
C   -4.3428   -0.6727   -0.0010
C   -5.6176    0.1309   -0.0007
O   -5.5707    1.3383    0.0007
O   -6.8053   -0.4946   -0.0020
C   -7.9914    0.3430   -0.0017
C   -9.2400   -0.5412   -0.0033
H    7.9956   -0.9735    0.8833
H    7.9880   -0.9711   -0.8966
H    9.2358    1.1717   -0.8991
H    9.2434    1.1693    0.8809
H   10.1304   -0.0875   -0.0146
H    4.3090    1.3001    0.8957
H    4.3099    1.3022   -0.8843
H    3.1759   -0.9030   -0.8874
H    3.1750   -0.9050    0.8925
H    1.8140    1.1677    0.8942
H    1.8149    1.1698   -0.8857
H    0.6809   -1.0354   -0.8888
H    0.6800   -1.0374    0.8911
H   -0.6809    1.0354    0.8928
H   -0.6800    1.0374   -0.8871
H   -1.8140   -1.1677   -0.8903
H   -1.8149   -1.1698    0.8897
H   -3.1759    0.9030    0.8914
H   -3.1750    0.9050   -0.8886
H   -4.3090   -1.3001   -0.8917
H   -4.3099   -1.3022    0.8883
H   -7.9922    0.9713    0.8890
H   -7.9913    0.9733   -0.8909
H  -10.1304    0.0876   -0.0031
H   -9.2392   -1.1695   -0.8940
H   -9.2401   -1.1715    0.8859


