%nprocshared=4
%mem=100MW
%chk=ONXPZLFXDMAPRO-UHFFFAOYSA-N.chk
#b3lyp/6-31+G(d) opt freq

gas opt

0 1
Cl   -5.2497    0.0010    0.0011
C   -3.5137    0.0009    0.0014
C   -2.8236   -0.8491    0.8498
Cl   -3.6962   -1.9111    1.9102
C   -1.4414   -0.8536    0.8532
Cl   -0.5780   -1.9203    1.9163
C   -0.7417   -0.0000    0.0010
C   -1.4410    0.8541   -0.8509
Cl   -0.5772    1.9193   -1.9152
C   -2.8233    0.8469   -0.8508
Cl   -3.6955    1.9093   -1.9111
C    0.7417   -0.0004    0.0009
C    1.4410   -0.8528   -0.8528
Cl    0.5770   -1.9161   -1.9190
C    2.8232   -0.8494   -0.8491
Cl    3.6953   -1.9095   -1.9117
C    3.5137   -0.0011    0.0008
Cl    5.2497   -0.0016    0.0008
C    2.8237    0.8478    0.8504
Cl    3.6964    1.9087    1.9118
C    1.4415    0.8557    0.8504
Cl    0.5781    1.9207    1.9154


