%nprocshared=4
%mem=100MW
%chk=OQANPHBRHBJGNZ-BKUYFWCQSA-N.chk
#b3lyp/6-31+G(d) opt freq

gas opt

0 1
S   -4.2927   -1.5148   -0.4749
O   -4.5088   -2.8858   -0.1700
O   -4.7284   -0.9096   -1.6845
N   -4.9814   -0.6477    0.7563
C   -4.9058    0.7403    0.7559
N   -4.2816    1.3632   -0.2321
C   -4.1877    2.6787   -0.2707
C   -4.7410    3.4576    0.7260
C   -5.4042    2.8435    1.7798
C   -5.4914    1.4629    1.7902
C   -2.5523   -1.2539   -0.3867
C   -1.7658   -2.0997    0.3744
C   -0.4018   -1.8986    0.4461
C    0.1812   -0.8442   -0.2485
N    1.5571   -0.6382   -0.1792
N    2.0960    0.3403   -0.8242
C    3.3950    0.5996   -0.6780
C    4.1969   -0.2678    0.0880
C    5.5476    0.0023    0.2397
C    6.4027   -0.8916    1.0356
O    5.9256   -1.8756    1.5661
O    7.7154   -0.6194    1.1766
C    6.1121    1.1922   -0.4055
O    7.2997    1.4529   -0.2880
C    5.2693    2.0331   -1.1641
C    3.9557    1.7406   -1.2991
C   -0.6131    0.0036   -1.0130
C   -1.9757   -0.2072   -1.0833
H   -5.4376   -1.1083    1.4779
H   -3.6710    3.1523   -1.0923
H   -4.6585    4.5338    0.6863
H   -5.8452    3.4306    2.5718
H   -6.0004    0.9526    2.5945
H   -2.2193   -2.9182    0.9135
H    0.2115   -2.5590    1.0411
H    2.1099   -1.2305    0.3542
H    3.7616   -1.1387    0.5553
H    8.2368   -1.2358    1.7088
H    5.6763    2.9115   -1.6428
H    3.3231    2.3929   -1.8827
H   -0.1642    0.8238   -1.5536
H   -2.5932    0.4506   -1.6770


