%nprocshared=4
%mem=100MW
%chk=OQEBBZSWEGYTPG-UHFFFAOYSA-N.chk
#b3lyp/6-31+G(d) opt freq

gas opt

0 1
O    1.2054   -1.0411   -0.5099
C    1.2434    0.0770   -0.0534
O    2.4237    0.6345    0.2591
C   -0.0339    0.8479    0.1592
C   -1.2245   -0.0065   -0.2806
N   -1.3313   -1.1837    0.5916
C   -2.5088    0.8192   -0.1823
H    3.2159    0.1028    0.1013
H   -0.1362    1.0973    1.2153
H   -0.0074    1.7646   -0.4298
H   -1.0786   -0.3300   -1.3112
H   -2.1108   -1.7645    0.3214
H   -0.4711   -1.7111    0.5941
H   -2.6548    1.1427    0.8483
H   -2.4296    1.6927   -0.8295
H   -3.3570    0.2105   -0.4957


