%nprocshared=4
%mem=100MW
%chk=OTLNPYWUJOZPPA-UHFFFAOYSA-N.chk
#b3lyp/6-31+G(d) opt freq

gas opt

0 1
O    3.4843   -1.0248    0.0013
N    2.8609    0.0216    0.0008
O    3.4553    1.0846   -0.0040
C    1.3809    0.0012    0.0000
C    0.7087   -1.2082   -0.0002
C   -0.6704   -1.2344   -0.0005
C   -1.3882   -0.0368   -0.0006
C   -2.8654   -0.0571   -0.0004
O   -3.4582   -1.1173   -0.0002
O   -3.5549    1.1002   -0.0005
C   -0.7036    1.1801   -0.0003
C    0.6758    1.1918    0.0053
H    1.2652   -2.1338   -0.0005
H   -1.1938   -2.1791   -0.0010
H   -4.5198    1.0364   -0.0003
H   -1.2527    2.1101   -0.0008
H    1.2066    2.1323    0.0055


