%nprocshared=4
%mem=100MW
%chk=OTQFXRBLGNEOGH-UHFFFAOYSA-N.chk
#b3lyp/6-31+G(d) opt freq

gas opt

0 1
Cl   -2.3330   -3.1600    0.0009
C   -2.3568   -1.4242    0.0005
C   -1.1666   -0.7146    0.0002
O    0.0223   -1.3764    0.0006
C    1.1891   -0.6772    0.0002
C    1.1667    0.7138   -0.0001
C    2.3566    1.4240   -0.0001
Cl    2.3320    3.1598    0.0002
C    3.5649    0.7485    0.0001
C    3.5868   -0.6343   -0.0001
Cl    5.1048   -1.4766   -0.0005
C    2.4008   -1.3481    0.0004
O   -0.0221    1.3756    0.0002
C   -1.1888    0.6764    0.0000
C   -2.4002    1.3480    0.0001
C   -3.5865    0.6346    0.0004
Cl   -5.1042    1.4774    0.0004
C   -3.5649   -0.7482   -0.0052
H    4.4921    1.3023    0.0001
H    2.4202   -2.4279    0.0002
H   -2.4192    2.4278    0.0002
H   -4.4923   -1.3017   -0.0050


