%nprocshared=4
%mem=100MW
%chk=OTVAEFIXJLOWRX-UHFFFAOYSA-N.chk
#b3lyp/6-31+G(d) opt freq

gas opt

0 1
Cl    1.4260   -2.3875    1.1032
C    2.9813   -1.7799    0.4230
Cl    3.6456   -2.9925   -0.7343
C    2.7403   -0.4780   -0.2967
O    3.0781   -0.3539   -1.4549
N    2.1494    0.5483    0.3466
C    1.9151    1.8139   -0.3530
C    0.7461    2.5509    0.3036
O    0.5434    3.8036   -0.3534
C   -0.5027    1.7153    0.1885
C   -0.9315    0.9613    1.2648
C   -2.0771    0.1949    1.1592
C   -2.7941    0.1828   -0.0226
S   -4.2539   -0.7946   -0.1574
O   -4.3625   -1.0726   -1.5467
O   -4.0641   -1.8400    0.7863
C   -5.5895    0.3105    0.3769
C   -2.3660    0.9379   -1.0985
C   -1.2226    1.7074   -0.9916
C    3.1734    2.6808   -0.2742
O    3.4267    3.0300    1.0881
H    3.6944   -1.6212    1.2320
H    1.8793    0.4490    1.2730
H    1.6772    1.6130   -1.3976
H    0.9713    2.7247    1.3559
H    0.4198    3.7307   -1.3097
H   -0.3713    0.9708    2.1882
H   -2.4117   -0.3948    1.9999
H   -5.6222    1.1829   -0.2757
H   -6.5413   -0.2182    0.3247
H   -5.4076    0.6308    1.4028
H   -2.9264    0.9287   -2.0217
H   -0.8882    2.2973   -1.8321
H    4.0230    2.1249   -0.6708
H    3.0270    3.5879   -0.8606
H    4.2116    3.5807    1.2136


