%nprocshared=4
%mem=100MW
%chk=OXNIZHLAWKMVMX-UHFFFAOYSA-N.chk
#b3lyp/6-31+G(d) opt freq

gas opt

0 1
O    0.6244   -3.5377    0.0073
N    1.2349   -2.4838    0.0087
O    2.4529   -2.4855    0.0066
C    0.4967   -1.2008    0.0067
C    1.1915   -0.0000    0.0083
O    2.5505   -0.0000    0.0116
C    0.4967    1.2008    0.0060
N    1.2349    2.4838    0.0071
O    0.6244    3.5377    0.0051
O    2.4529    2.4855    0.0101
C   -0.8847    1.1981    0.0021
C   -1.5749    0.0000    0.0006
N   -3.0551    0.0000   -0.0040
O   -3.6641    1.0548   -0.0065
O   -3.6641   -1.0548   -0.0054
C   -0.8847   -1.1981   -0.0024
H    2.9460   -0.0001   -0.8708
H   -1.4261    2.1326    0.0007
H   -1.4261   -2.1326   -0.0036


