%nprocshared=4
%mem=100MW
%chk=PBAYDYUZOSNJGU-UHFFFAOYSA-N.chk
#b3lyp/6-31+G(d) opt freq

gas opt

0 1
O   -3.4703    0.2820    0.2367
C   -2.4026    0.8263    0.0423
O   -2.3416    2.1666   -0.0761
C   -1.1663    0.0169   -0.0588
O   -0.0000    0.6361   -0.2733
C    1.1661    0.0169   -0.0576
C    2.4023    0.8263    0.0442
O    3.4698    0.2821    0.2397
O    2.3422    2.1662   -0.0802
C    1.2488   -1.3341    0.0713
C   -0.0002   -2.1070   -0.0158
O   -0.0001   -3.3192   -0.1511
C   -1.2485   -1.3338    0.0747
H   -3.1741    2.6525    0.0010
H    3.1752    2.6517   -0.0064
H    2.1984   -1.8230    0.2318
H   -2.1981   -1.8225    0.2349


