%nprocshared=4
%mem=100MW
%chk=PEDCQBHIVMGVHV-UHFFFAOYSA-N.chk
#b3lyp/6-31+G(d) opt freq

gas opt

0 1
O    0.0000    1.4000   -0.1742
C   -0.0000    0.0339    0.2451
C   -1.2492   -0.6653   -0.2948
O   -2.4131   -0.0873    0.2998
C    1.2492   -0.6653   -0.2948
O    2.4131   -0.0873    0.2998
H    0.0000    1.5168   -1.1342
H   -0.0000   -0.0119    1.3341
H   -1.2952   -0.5428   -1.3769
H   -1.2056   -1.7267   -0.0508
H   -3.2441   -0.4828    0.0029
H    1.2056   -1.7267   -0.0508
H    1.2952   -0.5428   -1.3769
H    3.2441   -0.4828    0.0029


