%nprocshared=4
%mem=100MW
%chk=PEQHIRFAKIASBK-UHFFFAOYSA-N.chk
#b3lyp/6-31+G(d) opt freq

gas opt

0 1
C   -0.0000   -0.0000    0.0008
C   -0.0052   -1.2082   -0.8999
C   -0.9572   -1.3240   -1.8955
C   -0.9620   -2.4323   -2.7217
C   -0.0146   -3.4247   -2.5525
C    0.9379   -3.3085   -1.5574
C    0.9454   -2.1981   -0.7341
C    1.2227   -0.0350    0.8811
C    1.3462   -1.0091    1.8541
C    2.4677   -1.0411    2.6616
C    3.4659   -0.0993    2.4958
C    3.3428    0.8742    1.5221
C    2.2233    0.9036    0.7117
C    0.0206    1.2518   -0.8381
C    1.0039    1.4273   -1.7937
C    1.0228    2.5755   -2.5632
C    0.0581    3.5481   -2.3773
C   -0.9257    3.3721   -1.4223
C   -0.9471    2.2219   -0.6558
C   -1.2380   -0.0086    0.8600
C   -1.3911    0.9323    1.8611
C   -2.5267    0.9244    2.6493
C   -3.5094   -0.0241    2.4361
C   -3.3568   -0.9644    1.4344
C   -2.2232   -0.9538    0.6434
H   -1.6974   -0.5487   -2.0277
H   -1.7062   -2.5231   -3.4991
H   -0.0188   -4.2909   -3.1974
H    1.6778   -4.0839   -1.4250
H    1.6895   -2.1073    0.0434
H    0.5663   -1.7448    1.9836
H    2.5639   -1.8017    3.4223
H    4.3418   -0.1239    3.1271
H    4.1225    1.6102    1.3928
H    2.1271    1.6643   -0.0489
H    1.7575    0.6675   -1.9390
H    1.7914    2.7130   -3.3093
H    0.0733    4.4455   -2.9779
H   -1.6791    4.1321   -1.2768
H   -1.7157    2.0845    0.0903
H   -0.6233    1.6733    2.0277
H   -2.6459    1.6590    3.4319
H   -4.3963   -0.0308    3.0524
H   -4.1244   -1.7057    1.2680
H   -2.1039   -1.6885   -0.1393


