%nprocshared=4
%mem=100MW
%chk=PLAZTCDQAHEYBI-UHFFFAOYSA-N.chk
#b3lyp/6-31+G(d) opt freq

gas opt

0 1
O    2.2575    0.5408   -0.5776
N    1.6119   -0.3342   -0.0288
O    2.1834   -1.2586    0.5211
C    0.1331   -0.2708   -0.0248
C   -0.5063    0.9498    0.0879
C    0.3024    2.2159    0.2067
C   -1.8871    1.0090    0.0911
C   -2.6291   -0.1526   -0.0179
C   -1.9899   -1.3728   -0.1305
C   -0.6086   -1.4315   -0.1395
H    0.5850    2.5612   -0.7878
H   -0.2935    2.9826    0.7018
H    1.2008    2.0196    0.7920
H   -2.3866    1.9625    0.1792
H   -3.7081   -0.1064   -0.0146
H   -2.5695   -2.2802   -0.2153
H   -0.1091   -2.3850   -0.2276


