%nprocshared=4
%mem=100MW
%chk=POULHZVOKOAJMA-UHFFFAOYSA-N.chk
#b3lyp/6-31+G(d) opt freq

gas opt

0 1
O    5.6770   -1.3037    0.0005
C    5.7417   -0.0972    0.0013
O    6.9384    0.5108   -0.0037
C    4.4788    0.7251    0.0016
C    3.2644   -0.2054    0.0008
C    1.9822    0.6294    0.0012
C    0.7677   -0.3011    0.0004
C   -0.5144    0.5338    0.0008
C   -1.7289   -0.3968   -0.0000
C   -3.0111    0.4381    0.0003
C   -4.2256   -0.4925   -0.0005
C   -5.5077    0.3424   -0.0001
C   -6.7222   -0.5882   -0.0009
C   -8.0044    0.2467   -0.0005
H    7.7201   -0.0586   -0.0079
H    4.4546    1.3534    0.8920
H    4.4549    1.3546   -0.8880
H    3.2886   -0.8337   -0.8895
H    3.2883   -0.8348    0.8904
H    1.9580    1.2577    0.8916
H    1.9582    1.2589   -0.8884
H    0.7919   -0.9294   -0.8900
H    0.7917   -0.9305    0.8900
H   -0.5387    1.1620    0.8911
H   -0.5384    1.1632   -0.8888
H   -1.7047   -1.0251   -0.8904
H   -1.7050   -1.0262    0.8896
H   -3.0353    1.0663    0.8907
H   -3.0351    1.0675   -0.8892
H   -4.2014   -1.1208   -0.8908
H   -4.2016   -1.1219    0.8891
H   -5.5320    0.9706    0.8903
H   -5.5317    0.9718   -0.8897
H   -6.6980   -1.2164   -0.8913
H   -6.6983   -1.2176    0.8887
H   -8.0284    0.8761   -0.8901
H   -8.8696   -0.4162   -0.0011
H   -8.0286    0.8750    0.8898


