%nprocshared=4
%mem=100MW
%chk=POZRVZJJTULAOH-UHFFFAOYSA-N.chk
#b3lyp/6-31+G(d) opt freq

gas opt

0 1
O    5.0128    0.1909   -0.9296
C    4.0578    0.2816    0.1282
C    4.2318    1.5268    0.8801
C    4.3712    2.5247    1.4827
C    2.6350    0.1323   -0.4434
C    2.7241   -0.9825   -1.5010
C    1.8618   -0.3348    0.8044
C    0.4330   -0.7008    0.5183
C   -0.0517   -0.0375   -0.7685
C   -1.5840   -0.0480   -0.7933
C   -2.0562   -0.0457   -2.2514
C   -2.0531   -1.3200   -0.1345
C   -3.2416   -1.4219    0.4650
C   -4.1039   -0.2342    0.4832
O   -5.3893   -0.0375    0.7423
N   -5.6873    1.1369    0.6242
C   -4.6533    1.8759    0.3026
C   -3.5727    1.0095    0.2076
C   -2.1176    1.2036   -0.0946
C   -1.1480   -2.5294   -0.1612
C    0.1949   -2.2026    0.4878
C    0.4998    1.3793   -0.8635
C    2.0256    1.3655   -1.0526
C    2.7610   -1.4568    1.3452
C    4.1982   -0.9346    1.0810
H    5.9326    0.2147   -0.6321
H    4.4959    3.4172    2.0216
H    3.1666   -1.8728   -1.0541
H    1.7243   -1.2178   -1.8660
H    3.3445   -0.6464   -2.3318
H    1.8574    0.4828    1.5563
H   -0.1865   -0.2957    1.3413
H    0.2780   -0.6200   -1.6330
H   -1.6731   -0.9311   -2.7588
H   -3.1458   -0.0531   -2.2804
H   -1.6855    0.8488   -2.7519
H   -3.5575   -2.3497    0.9211
H   -4.6443    2.9442    0.1445
H   -1.5729    1.3663    0.8360
H   -1.9944    2.0694   -0.7459
H   -1.6207   -3.3442    0.3901
H   -0.9842   -2.8408   -1.1922
H    0.9841   -2.6913   -0.0787
H    0.1955   -2.5854    1.5085
H    0.0423    1.8999   -1.7081
H    0.2622    1.9276    0.0522
H    2.4354    2.2870   -0.6369
H    2.2414    1.3780   -2.1346
H    2.5980   -1.5852    2.4190
H    2.5877   -2.3967    0.8285
H    4.8001   -1.7100    0.6094
H    4.6591   -0.6190    2.0170


