%nprocshared=4
%mem=100MW
%chk=PTFJIKYUEPWBMS-UHFFFAOYSA-N.chk
#b3lyp/6-31+G(d) opt freq

gas opt

0 1
F   -4.2310    0.0937   -1.0723
C   -3.6127    0.2207    0.1762
F   -3.9168    1.4724    0.7221
F   -4.0759   -0.7856    1.0306
C   -2.1200    0.0931    0.0128
C   -1.3532    1.2193   -0.2239
C    0.0150    1.1060   -0.3736
N    0.8351    2.3121   -0.6265
O    0.3032    3.4052   -0.7025
O    2.0417    2.2114   -0.7585
C    0.6208   -0.1410   -0.2863
N    2.0044   -0.2591   -0.4369
C    2.6321   -0.7194    0.8089
C    2.7888    0.4450    1.7526
C    1.9105    0.6390    2.7050
C    3.9558    1.3862    1.6007
C    2.3380   -1.1511   -1.5554
C    2.3510   -0.3509   -2.8594
C   -0.1524   -1.2702   -0.0485
N    0.4888   -2.6010    0.0453
O   -0.1979   -3.6025    0.1408
O    1.7030   -2.6946    0.0271
C   -1.5195   -1.1491    0.1056
H   -1.8249    2.1885   -0.2920
H    2.0045   -1.4807    1.2723
H    3.6121   -1.1420    0.5874
H    1.0741   -0.0355    2.8139
H    2.0227    1.4735    3.3813
H    3.6532    2.2470    1.0044
H    4.2818    1.7226    2.5850
H    4.7767    0.8699    1.1030
H    3.3215   -1.5904   -1.3888
H    1.5927   -1.9436   -1.6228
H    1.3958    0.1596   -2.9820
H    3.1546    0.3848   -2.8262
H    2.5120   -1.0272   -3.6990
H   -2.1213   -2.0266    0.2905


