%nprocshared=4
%mem=100MW
%chk=PUFQVTATUTYEAL-UHFFFAOYSA-N.chk
#b3lyp/6-31+G(d) opt freq

gas opt

0 1
O    1.6283   -2.2282    0.0403
C    1.1189   -1.1252    0.0083
N    1.8962   -0.0245   -0.0203
C    3.3551   -0.1577   -0.0129
C    3.9943    1.2319   -0.0498
N    5.4572    1.0984   -0.0424
C    6.1049    2.3884   -0.3148
C    6.0103    2.7010   -1.8096
C    5.9276    0.5311    1.2283
C    7.3714    0.0506    1.0689
C   -0.3542   -0.9909   -0.0053
C   -1.2250   -2.1640   -0.0840
C   -2.6277   -1.9679   -0.0932
N   -3.1286   -0.7308   -0.0310
C   -2.3640    0.3333    0.0396
O   -2.9487    1.5551    0.1001
C   -4.3771    1.5924    0.0821
C   -4.8504    3.0454    0.1572
C   -6.3798    3.0853    0.1379
C   -6.8530    4.5383    0.2130
C   -0.9665    0.2523    0.0618
C   -3.4715   -3.0903   -0.1686
C   -2.9311   -4.3381   -0.2312
C   -1.5509   -4.5252   -0.2219
C   -0.7024   -3.4605   -0.1500
H    1.4897    0.8558   -0.0458
H    3.6679   -0.6775    0.8927
H    3.6725   -0.7269   -0.8866
H    3.6815    1.7518   -0.9554
H    3.6770    1.8012    0.8239
H    5.6049    3.1732    0.2528
H    7.1531    2.3382   -0.0198
H    6.5228    1.9238   -2.3765
H    4.9625    2.7371   -2.1076
H    6.4783    3.6649   -2.0095
H    5.8823    1.2938    2.0057
H    5.2934   -0.3103    1.5075
H    7.4410   -0.6106    0.2051
H    8.0262    0.9096    0.9227
H    7.6756   -0.4897    1.9654
H   -4.7408    1.1390   -0.8400
H   -4.7658    1.0391    0.9370
H   -4.4867    3.4988    1.0792
H   -4.4617    3.5988   -0.6977
H   -6.7435    2.6319   -0.7842
H   -6.7684    2.5320    0.9928
H   -6.4893    4.9917    1.1351
H   -6.4643    5.0917   -0.6419
H   -7.9426    4.5668    0.1993
H   -0.3699    1.1506    0.1209
H   -4.5440   -2.9628   -0.1766
H   -3.5833   -5.1970   -0.2888
H   -1.1479   -5.5260   -0.2725
H    0.3662   -3.6166   -0.1437


