%nprocshared=4
%mem=100MW
%chk=PUJDIJCNWFYVJX-UHFFFAOYSA-N.chk
#b3lyp/6-31+G(d) opt freq

gas opt

0 1
O   -3.1756    0.0018    0.9955
C   -2.7432    0.0016   -0.1401
O   -1.4140    0.0011   -0.3543
C   -0.5574    0.0008    0.8181
C    0.8862    0.0003    0.3854
C    1.5487    1.1972    0.1870
C    2.8728    1.1968   -0.2099
C    3.5346   -0.0006   -0.4079
C    2.8724   -1.1976   -0.2086
C    1.5495   -1.1971    0.1925
N   -3.5942   -0.0037   -1.1852
H   -0.7576    0.8909    1.4146
H   -0.7582   -0.8891    1.4146
H    1.0317    2.1327    0.3417
H    3.3902    2.1319   -0.3656
H    4.5689   -0.0010   -0.7187
H    3.3893   -2.1330   -0.3636
H    1.0321   -2.1322    0.3482
H   -4.5519   -0.0074   -1.0309
H   -3.2491   -0.0038   -2.0917


