%nprocshared=4
%mem=100MW
%chk=PWNAWOCHVWERAR-UHFFFAOYSA-N.chk
#b3lyp/6-31+G(d) opt freq

gas opt

0 1
Cl   -1.9945   -1.7081    2.0738
C   -3.2492   -0.8881    1.1980
C   -2.9558    0.2564    0.4784
C   -1.5472    0.7914    0.4540
N   -0.8155    0.1929   -0.6704
C   -1.0748    0.9258   -1.9169
C   -0.9063   -0.0190   -3.1085
C    0.5537    0.1322   -0.4011
C    1.2543   -1.0474   -0.6187
N    0.5508   -2.2422   -1.1372
O    1.1658   -3.2761   -1.3277
O   -0.6430   -2.1913   -1.3732
C    2.6080   -1.1041   -0.3513
C    3.2660    0.0116    0.1331
C    4.7432   -0.0540    0.4237
F    5.4604    0.3085   -0.7215
F    5.0530    0.8262    1.4661
F    5.0878   -1.3577    0.7964
C    2.5716    1.1874    0.3509
C    1.2190    1.2528    0.0797
N    0.4766    2.5120    0.3127
O    0.7083    3.1812    1.3037
O   -0.3660    2.8790   -0.4866
C   -3.9568    0.9097   -0.2196
F   -3.6715    2.0272   -0.9231
C   -5.2508    0.4168   -0.1968
C   -5.5421   -0.7265    0.5225
C   -4.5412   -1.3823    1.2150
H   -1.5719    1.8747    0.3361
H   -1.0465    0.5390    1.3888
H   -2.0923    1.3162   -1.9039
H   -0.3696    1.7522   -2.0059
H   -1.6114   -0.8454   -3.0195
H   -1.0987    0.5247   -4.0334
H    0.1113   -0.4095   -3.1215
H    3.1533   -2.0209   -0.5203
H    3.0885    2.0570    0.7292
H   -6.0323    0.9262   -0.7409
H   -6.5513   -1.1106    0.5400
H   -4.7699   -2.2758    1.7768


