%nprocshared=4
%mem=100MW
%chk=PXWLVJLKJGVOKE-UHFFFAOYSA-N.chk
#b3lyp/6-31+G(d) opt freq

gas opt

0 1
O   -0.5461   -1.9011    0.2172
C   -0.6730   -0.6971    0.0847
N    0.3265    0.2019   -0.0227
N   -0.2545    1.4696   -0.1596
C    0.4688    2.7352   -0.3063
C   -1.6123    1.3211   -0.1331
C   -2.6227    2.4331   -0.2495
C   -1.8954    0.0105    0.0096
C   -3.2738   -0.5940    0.0847
C   -3.4581   -1.5880   -1.0638
C   -3.4395   -1.3216    1.4204
C    1.6961   -0.0801   -0.0007
C    2.1862   -1.2023   -0.6561
C    3.5393   -1.4777   -0.6328
C    4.4059   -0.6376    0.0420
C    3.9212    0.4805    0.6955
C    2.5699    0.7645    0.6717
H    1.5418    2.5440   -0.2928
H    0.1949    3.2027   -1.2521
H    0.2079    3.4003    0.5168
H   -2.1039    3.3855   -0.3589
H   -3.2537    2.2609   -1.1214
H   -3.2413    2.4574    0.6477
H   -4.0214    0.1952    0.0057
H   -4.4550   -2.0252   -1.0094
H   -3.3400   -1.0696   -2.0153
H   -2.7104   -2.3772   -0.9847
H   -3.3082   -0.6135    2.2386
H   -4.4365   -1.7588    1.4747
H   -2.6918   -2.1108    1.4994
H    1.5098   -1.8590   -1.1830
H    3.9210   -2.3504   -1.1419
H    5.4636   -0.8554    0.0590
H    4.6007    1.1347    1.2217
H    2.1920    1.6381    1.1820


