%nprocshared=4
%mem=100MW
%chk=PXWUKZGIHQRDHL-UHFFFAOYSA-N.chk
#b3lyp/6-31+G(d) opt freq

gas opt

0 1
O   -0.3454   -2.7361   -0.1216
C   -1.6573   -3.3023   -0.1016
C   -0.2583   -1.3862   -0.0881
N    0.9315   -0.7976   -0.1043
C    1.0181    0.5288   -0.0713
N    2.2550    1.1405   -0.0886
C    3.4731    0.3283   -0.1433
C    4.6061    1.1493   -0.7623
C    3.8663   -0.0972    1.2727
N   -0.0873    1.2655   -0.0222
C   -1.2780    0.6754   -0.0060
N   -2.4263    1.4392    0.0446
C   -3.7387    0.7885    0.0624
C   -4.8354    1.8538    0.1195
N   -1.3627   -0.6513   -0.0445
H   -1.5844   -4.3894   -0.1324
H   -2.1703   -2.9983    0.8109
H   -2.2179   -2.9510   -0.9678
H    2.3180    2.1081   -0.0646
H    3.2920   -0.5577   -0.7519
H    4.7872    2.0353   -0.1538
H    5.5124    0.5450   -0.8030
H    4.3260    1.4524   -1.7711
H    3.0592   -0.6821    1.7137
H    4.7726   -0.7015    1.2320
H    4.0474    0.7888    1.8812
H   -2.3644    2.4070    0.0683
H   -3.8599    0.1903   -0.8406
H   -3.8126    0.1436    0.9381
H   -4.7142    2.4520    1.0226
H   -4.7615    2.4986   -0.7562
H   -5.8119    1.3696    0.1328


