%nprocshared=4
%mem=100MW
%chk=PYGXAGIECVVIOZ-UHFFFAOYSA-N.chk
#b3lyp/6-31+G(d) opt freq

gas opt

0 1
O    5.5636   -1.3674    0.0066
C    5.6169   -0.1604    0.0084
O    6.8078    0.4589    0.0047
C    7.9895   -0.3849   -0.0014
C    9.2427    0.4927   -0.0049
C   10.4879   -0.3963   -0.0114
C   11.7412    0.4813   -0.0149
C    4.3463    0.6499    0.0085
C    3.1406   -0.2920    0.0062
C    1.8506    0.5306    0.0063
C    0.6450   -0.4113    0.0040
C   -0.6450    0.4113    0.0041
C   -1.8506   -0.5306    0.0017
C   -3.1406    0.2920    0.0019
C   -4.3463   -0.6500   -0.0005
C   -5.6169    0.1604   -0.0004
O   -5.5636    1.3674    0.0014
O   -6.8078   -0.4589   -0.0022
C   -7.9895    0.3849   -0.0020
C   -9.2427   -0.4927   -0.0043
C  -10.4879    0.3964   -0.0040
C  -11.7412   -0.4812   -0.0063
H    7.9901   -1.0157    0.8875
H    7.9830   -1.0127   -0.8924
H    9.2421    1.1235   -0.8939
H    9.2492    1.1206    0.8861
H   10.4885   -1.0271    0.8776
H   10.4815   -1.0242   -0.9024
H   11.7405    1.1120   -0.9038
H   11.7476    1.1091    0.8761
H   12.6282   -0.1521   -0.0195
H    4.3155    1.2773    0.8994
H    4.3169    1.2798   -0.8806
H    3.1714   -0.9193   -0.8847
H    3.1700   -0.9219    0.8953
H    1.8199    1.1580    0.8972
H    1.8213    1.1605   -0.8828
H    0.6758   -1.0387   -0.8869
H    0.6743   -1.0412    0.8931
H   -0.6758    1.0386    0.8950
H   -0.6743    1.0412   -0.8850
H   -1.8198   -1.1580   -0.8891
H   -1.8213   -1.1605    0.8908
H   -3.1714    0.9193    0.8927
H   -3.1699    0.9219   -0.8872
H   -4.3155   -1.2773   -0.8913
H   -4.3169   -1.2798    0.8886
H   -7.9873    1.0129    0.8889
H   -7.9858    1.0155   -0.8910
H   -9.2449   -1.1207   -0.8952
H   -9.2464   -1.1233    0.8848
H  -10.4858    1.0244    0.8869
H  -10.4843    1.0269   -0.8931
H  -12.6283    0.1521   -0.0061
H  -11.7434   -1.1093   -0.8972
H  -11.7448   -1.1118    0.8828


