%nprocshared=4
%mem=100MW
%chk=QANMHLXAZMSUEX-UHFFFAOYSA-N.chk
#b3lyp/6-31+G(d) opt freq

gas opt

0 1
N   -0.5027    0.0412    0.0185
C   -1.5836    1.0301    0.0224
C   -2.9132    0.3209    0.0342
O   -3.6136   -0.0530   -1.0491
C   -4.7481   -0.6585   -0.6618
C   -4.7826   -0.6767    0.6828
C   -3.5972   -0.0501    1.1314
C    0.8168    0.4583    0.0078
N    1.1209    1.7521    0.0011
C    2.3770    2.1593   -0.0091
N    3.3917    1.3206   -0.0136
C    3.1853    0.0078   -0.0075
N    3.9945   -1.1001   -0.0096
H    4.9645   -1.1024   -0.0167
C    3.1854   -2.1972    0.0002
N    1.9372   -1.8290    0.0080
C    1.8661   -0.4761    0.0097
H   -0.7119   -0.9060    0.0273
H   -1.4986    1.6576    0.9096
H   -1.5110    1.6513   -0.8703
H   -5.5046   -1.0619   -1.3185
H   -5.5640   -1.0933    1.3010
H   -3.3009    0.1065    2.1581
H    2.5794    3.2201   -0.0143
H    3.5295   -3.2209    0.0006


