%nprocshared=4
%mem=100MW
%chk=QBSJMKIUCUGGNG-UHFFFAOYSA-N.chk
#b3lyp/6-31+G(d) opt freq

gas opt

0 1
O   -1.6476   -0.6063   -1.0713
C   -1.8519   -0.3877    0.1064
O   -0.8438   -0.4853    0.9942
C    0.3974   -0.7251    0.4946
C    1.1955    0.3312    0.0796
C    0.6872    1.7462    0.1828
C    1.6154    2.5566    1.0897
C    0.6546    2.3791   -1.2098
C    2.4564    0.0849   -0.4277
C    2.9235   -1.2132   -0.5222
C    2.1300   -2.2675   -0.1098
C    0.8704   -2.0259    0.4041
N   -3.0860   -0.0421    0.5234
C   -4.1812    0.0699   -0.4432
H   -0.3184    1.7413    0.6033
H    2.6210    2.5615    0.6692
H    1.2478    3.5800    1.1643
H    1.6386    2.1057    2.0818
H   -0.0066    1.8018   -1.8559
H    0.2870    3.4026   -1.1352
H    1.6602    2.3840   -1.6303
H    3.0778    0.9069   -0.7512
H    3.9097   -1.4038   -0.9191
H    2.4969   -3.2805   -0.1849
H    0.2511   -2.8498    0.7265
H   -3.2491    0.1324    1.4635
H   -4.3295   -0.8903   -0.9372
H   -5.0959    0.3566    0.0758
H   -3.9331    0.8269   -1.1872


