%nprocshared=4
%mem=100MW
%chk=QBYJBZPUGVGKQQ-SJJAEHHWSA-N.chk
#b3lyp/6-31+G(d) opt freq

gas opt

0 1
Cl    2.1040    0.0103    2.0703
C    1.3811    0.0052    0.4215
Cl    2.6285    0.0066   -0.8773
C    0.3145   -1.1443    0.2318
Cl    0.9629   -2.8289    0.2356
C   -0.3100   -0.6646   -1.0782
C   -0.3159    0.6596   -1.0799
Cl   -0.9262    1.6644   -2.3580
C    0.3075    1.1474    0.2277
Cl    0.9450    2.8361    0.2260
C   -0.6776    0.7814    1.3662
H   -0.3656    1.1974    2.3411
C   -0.6715   -0.7806    1.3701
H   -0.3541   -1.1891    2.3466
C   -2.1350   -1.1501    1.0258
H   -2.3337   -2.1759    0.7205
C   -2.9103   -0.6647    2.2722
C   -2.9154    0.6566    2.2668
C   -2.1434    1.1373    1.0165
H   -2.3492    2.1590    0.7027
C   -2.5967   -0.0120    0.0526
Cl   -0.9079   -1.6775   -2.3558
H   -3.3638   -1.3020    3.0111
H   -3.3736    1.2966    3.0005
H   -2.1898   -0.0144   -0.9310
H   -3.7073   -0.0164   -0.0350


