%nprocshared=4
%mem=100MW
%chk=QCKHVNQHBOGZER-UHFFFAOYSA-N.chk
#b3lyp/6-31+G(d) opt freq

gas opt

0 1
Br   -2.8353   -1.6376   -0.0006
C   -1.1977   -0.6921   -0.0006
C   -1.1977    0.6921   -0.0002
Br   -2.8353    1.6376    0.0003
C    0.0000    1.3836    0.0002
C    1.1977    0.6921   -0.0002
Br    2.8353    1.6376   -0.0003
C    1.1977   -0.6921   -0.0001
Br    2.8353   -1.6376   -0.0001
C   -0.0000   -1.3836    0.0048
H    0.0000    2.4636    0.0004
H   -0.0000   -2.4636    0.0049


