%nprocshared=4
%mem=100MW
%chk=QCRFMSUKWRQZEM-UHFFFAOYSA-N.chk
#b3lyp/6-31+G(d) opt freq

gas opt

0 1
O    2.5773    0.0872    0.1650
C    1.2211    0.0271   -0.2812
C    0.6707   -1.2769    0.0578
C   -0.7756   -1.4542   -0.4479
C   -1.7054   -0.7602    0.5102
C   -2.0335    0.6805    0.0741
C   -0.8026    1.4382   -0.4592
C    0.4312    1.1842    0.3639
H    3.0167    0.9276   -0.0241
H    1.2005    0.1482   -1.3643
H    1.2972   -2.0506   -0.3861
H    0.6827   -1.3942    1.1414
H   -0.8738   -1.0113   -1.4390
H   -1.0206   -2.5154   -0.4921
H   -2.6331   -1.3288    0.5756
H   -1.2404   -0.7332    1.4957
H   -2.7918    0.6470   -0.7081
H   -2.4371    1.2232    0.9289
H   -0.6126    1.1242   -1.4856
H   -1.0165    2.5070   -0.4534
H    0.1440    0.9103    1.3791
H    1.0487    2.0822    0.3848


