%nprocshared=4
%mem=100MW
%chk=QFMDFTQOJHFVNR-UHFFFAOYSA-N.chk
#b3lyp/6-31+G(d) opt freq

gas opt

0 1
Cl   -0.1504    1.7188    1.6413
C    0.0769    2.2187   -0.0761
Cl    1.7081    2.9604   -0.2753
C   -0.0403    0.9927   -0.9839
C    1.0586    0.0159   -0.6531
C    2.0815   -0.2056   -1.5561
C    3.0894   -1.1016   -1.2527
C    3.0747   -1.7759   -0.0461
C    4.1732   -2.7531    0.2845
C    5.3096   -2.0201    1.0002
C    2.0525   -1.5534    0.8575
C    1.0466   -0.6545    0.5558
C   -1.3789    0.3346   -0.7691
C   -1.5165   -1.0284   -0.9535
C   -2.7444   -1.6321   -0.7566
C   -3.8345   -0.8727   -0.3747
C   -5.1733   -1.5307   -0.1604
C   -5.2953   -1.9754    1.2984
C   -3.6966    0.4901   -0.1889
C   -2.4678    1.0932   -0.3822
H   -0.6885    2.9459   -0.3471
H    0.0497    1.3018   -2.0253
H    2.0930    0.3212   -2.4989
H    3.8882   -1.2751   -1.9586
H    3.7802   -3.5357    0.9334
H    4.5512   -3.1996   -0.6352
H    5.7026   -1.2375    0.3512
H    4.9315   -1.5736    1.9199
H    6.1041   -2.7269    1.2393
H    2.0411   -2.0800    1.8004
H    0.2480   -0.4807    1.2617
H   -0.6648   -1.6217   -1.2519
H   -2.8520   -2.6969   -0.9013
H   -5.9679   -0.8214   -0.3918
H   -5.2599   -2.3991   -0.8134
H   -6.2636   -2.4513    1.4534
H   -4.5007   -2.6847    1.5298
H   -5.2086   -1.1069    1.9514
H   -4.5482    1.0833    0.1098
H   -2.3600    2.1579   -0.2370


