%nprocshared=4
%mem=100MW
%chk=QGBSISYHAICWAH-UHFFFAOYSA-N.chk
#b3lyp/6-31+G(d) opt freq

gas opt

0 1
N   -2.5054    0.1104    0.0000
C   -1.4519   -0.3147   -0.0000
N   -0.1954   -0.8218   -0.0000
C    0.8456   -0.0077   -0.0000
N    0.6550    1.3449    0.0000
N    2.1124   -0.5189   -0.0000
H   -0.2446    1.7079    0.0000
H    1.4191    1.9424    0.0000
H    2.2478   -1.4794   -0.0000
H    2.8765    0.0786    0.0000


