%nprocshared=4
%mem=100MW
%chk=QIGBRXMKCJKVMJ-UHFFFAOYSA-N.chk
#b3lyp/6-31+G(d) opt freq

gas opt

0 1
O    2.7436   -0.0001   -0.0446
C    1.3840   -0.0000   -0.0221
C    0.6906    1.2011   -0.0124
C   -0.6905    1.2012    0.0106
C   -1.3839    0.0000    0.0235
O   -2.7436    0.0001    0.0466
C   -0.6906   -1.2011    0.0124
C    0.6905   -1.2012   -0.0145
H    3.1515    0.0012    0.8321
H    1.2305    2.1364   -0.0224
H   -1.2305    2.1365    0.0189
H   -3.1518   -0.0008   -0.8300
H   -1.2305   -2.1364    0.0221
H    1.2304   -2.1365   -0.0231


