%nprocshared=4
%mem=100MW
%chk=QNAYBMKLOCPYGJ-UHFFFAOYSA-N.chk
#b3lyp/6-31+G(d) opt freq

gas opt

0 1
O    0.9224   -1.1068    0.6084
C    0.7010   -0.1013   -0.0240
O    1.7134    0.7062   -0.3770
C   -0.7112    0.2429   -0.4219
N   -1.5440   -0.9660   -0.3666
C   -1.2709    1.2922    0.5407
H    2.6021    0.4417   -0.1025
H   -0.7160    0.6413   -1.4365
H   -1.2335   -1.6501   -1.0401
H   -1.5558   -1.3547    0.5645
H   -0.6530    2.1892    0.4996
H   -2.2923    1.5411    0.2529
H   -1.2661    0.8938    1.5553


