%nprocshared=4
%mem=100MW
%chk=QTSBFJRVBUIZJC-UHFFFAOYSA-N.chk
#b3lyp/6-31+G(d) opt freq

gas opt

0 1
I   -5.2704    0.2247   -0.6058
C   -3.7594   -1.0103    0.1563
C   -2.4389   -0.6095    0.0851
C   -1.4381   -1.4288    0.5910
N   -0.1014   -1.0263    0.5211
C    0.2221    0.3126    0.6135
N   -0.7070    1.2208    0.8827
C   -0.4106    2.5071    0.9739
N    0.8046    2.9728    0.8077
C    1.8205    2.1402    0.5323
C    1.5542    0.7522    0.4297
C    2.5960   -0.1372    0.1432
C    3.8666    0.3364   -0.0359
O    4.8638   -0.5482   -0.3177
C    6.2054   -0.0882   -0.1248
C    7.1833   -1.0521   -0.7997
O    7.1250   -2.3230   -0.1490
C    8.0051   -3.3018   -0.7053
C    6.3318    1.3042   -0.7573
O    5.4033    2.1783   -0.1072
C    4.1380    1.7079    0.0663
C    3.1286    2.6035    0.3510
C   -1.7685   -2.6491    1.1672
C   -3.0900   -3.0438    1.2352
C   -4.0851   -2.2236    0.7354
H   -2.1854    0.3395   -0.3637
H    0.5990   -1.6878    0.4075
H   -1.2047    3.2051    1.1948
H    2.3971   -1.1957    0.0639
H    6.4242   -0.0295    0.9414
H    6.9128   -1.1685   -1.8492
H    8.1951   -0.6530   -0.7275
H    9.0339   -2.9494   -0.6311
H    7.9012   -4.2377   -0.1564
H    7.7516   -3.4648   -1.7528
H    7.3463    1.6789   -0.6212
H    6.1001    1.2472   -1.8208
H    3.3460    3.6585    0.4294
H   -0.9925   -3.2886    1.5611
H   -3.3472   -3.9925    1.6827
H   -5.1179   -2.5345    0.7902


