%nprocshared=4
%mem=100MW
%chk=QUBSMEXIPLOOMC-UHFFFAOYSA-N.chk
#b3lyp/6-31+G(d) opt freq

gas opt

0 1
S   -2.9139   -0.1116   -0.1173
O   -3.1782   -1.3199   -0.8170
O   -3.4448    1.1464   -0.5106
N   -3.4051   -0.3588    1.4448
C   -1.1619    0.0743   -0.0898
S   -0.3095    1.5983    0.1026
C    1.2432    0.7801    0.0061
S    2.8236    1.5721    0.1202
C    3.9297    0.2280   -0.4129
C    3.4818   -1.0517    0.3048
C    2.1835   -1.5643   -0.2996
O    1.8037   -2.7702    0.3665
C    1.0617   -0.5503   -0.1652
C   -0.2872   -0.9155   -0.2056
H   -3.8700   -1.1760    1.6834
H   -3.2280    0.3136    2.1211
H    3.8543    0.0928   -1.4919
H    4.9580    0.4648   -0.1398
H    4.2544   -1.8136    0.2007
H    3.3283   -0.8379    1.3626
H    2.3434   -1.7776   -1.3564
H    0.9825   -3.1599    0.0366
H   -0.5984   -1.9424   -0.3280


