%nprocshared=4
%mem=100MW
%chk=QUEKGYQTRJVEQC-UHFFFAOYSA-N.chk
#b3lyp/6-31+G(d) opt freq

gas opt

0 1
Cl   -2.7099   -1.3848   -0.0006
C   -1.0317   -0.9407   -0.0010
C   -0.6635    0.4078   -0.0006
C   -1.6995    1.4597    0.0001
O   -2.8753    1.1542    0.0004
O   -1.3410    2.7583    0.0005
C    0.6890    0.7552   -0.0005
C    1.6517   -0.2325   -0.0008
N    3.0857    0.1346   -0.0001
O    3.4140    1.3075    0.0006
O    3.9372   -0.7363   -0.0003
C    1.2808   -1.5658   -0.0011
C   -0.0566   -1.9187    0.0040
H   -2.0547    3.4108    0.0009
H    0.9807    1.7951   -0.0006
H    2.0394   -2.3345   -0.0013
H   -0.3389   -2.9611    0.0041


