%nprocshared=4
%mem=100MW
%chk=QUWAJPZDCZDTJS-UHFFFAOYSA-N.chk
#b3lyp/6-31+G(d) opt freq

gas opt

0 1
S    0.0000   -0.0000   -1.3201
O   -0.0232   -1.2495   -1.9964
O    0.0232    1.2495   -1.9964
C   -1.4181    0.0263   -0.2747
C   -1.6960   -1.0575    0.5459
O   -0.8751   -2.1404    0.5445
C   -2.8130   -1.0335    1.3681
C   -3.6458    0.0689    1.3680
C   -3.3668    1.1475    0.5494
C   -2.2510    1.1282   -0.2673
C    1.4181   -0.0263   -0.2747
C    1.6960    1.0575    0.5459
O    0.8751    2.1404    0.5445
C    2.8130    1.0335    1.3681
C    3.6458   -0.0689    1.3680
C    3.3668   -1.1475    0.5494
C    2.2510   -1.1282   -0.2673
H   -0.1556   -2.0894    1.1886
H   -3.0316   -1.8760    2.0075
H   -4.5158    0.0880    2.0077
H   -4.0190    2.0083    0.5508
H   -2.0349    1.9721   -0.9056
H    0.1556    2.0894    1.1886
H    3.0316    1.8760    2.0075
H    4.5158   -0.0880    2.0077
H    4.0190   -2.0083    0.5508
H    2.0349   -1.9721   -0.9056


