%nprocshared=4
%mem=100MW
%chk=QVHJQCGUWFKTSE-YFKPBYRVSA-N.chk
#b3lyp/6-31+G(d) opt freq

gas opt

0 1
O    0.6687   -1.0252   -0.7115
C    0.5040   -0.0628    0.0118
O    1.5658    0.6395    0.4500
C    2.8772    0.1898    0.0185
C    2.9553    0.2366   -1.5088
C    3.9508    1.1040    0.6123
C    3.1074   -1.2450    0.4972
N   -0.7419    0.3050    0.3709
C   -1.8977   -0.4556   -0.1109
H   -1.7022   -0.8119   -1.1223
C   -3.1157    0.4318   -0.1175
O   -3.0274    1.5815    0.2432
O   -4.2986   -0.0552   -0.5240
C   -2.1424   -1.6508    0.8124
H    2.7913    1.2588   -1.8498
H    3.9398   -0.1010   -1.8327
H    2.1905   -0.4147   -1.9318
H    3.8951    1.0707    1.7004
H    4.9352    0.7664    0.2884
H    3.7868    2.1262    0.2713
H    2.3425   -1.8963    0.0742
H    4.0918   -1.5826    0.1733
H    3.0517   -1.2784    1.5853
H   -0.8734    1.0732    0.9483
H   -5.0512    0.5519   -0.5107
H   -1.2614   -2.2927    0.8172
H   -2.3379   -1.2946    1.8238
H   -3.0023   -2.2167    0.4540


