%nprocshared=4
%mem=100MW
%chk=QXBUYALKJGBACG-UHFFFAOYSA-N.chk
#b3lyp/6-31+G(d) opt freq

gas opt

0 1
C   -0.0004    2.5898   -0.7121
N    0.0001    1.2011   -0.2453
C    1.2329    0.5867   -0.0396
C    1.3820   -0.7963   -0.0856
S    0.0004   -1.8395   -0.4043
C   -1.3814   -0.7966   -0.0849
C   -1.2324    0.5882   -0.0326
C   -2.3434    1.3842    0.2250
C   -3.5841    0.8084    0.4239
C   -3.7292   -0.5645    0.3691
C   -2.6304   -1.3666    0.1211
C    2.6309   -1.3660    0.1217
C    3.7285   -0.5640    0.3756
C    3.5832    0.8091    0.4237
C    2.3432    1.3839    0.2173
H    0.8875    2.7698   -1.3181
H   -0.8924    2.7713   -1.3117
H    0.0032    3.2616    0.1463
H   -2.2360    2.4579    0.2701
H   -4.4422    1.4332    0.6230
H   -4.6999   -1.0119    0.5240
H   -2.7458   -2.4396    0.0793
H    2.7457   -2.4393    0.0848
H    4.6985   -1.0107    0.5366
H    4.4406    1.4349    0.6228
H    2.2359    2.4579    0.2561


