%nprocshared=4
%mem=100MW
%chk=RDXLYGJSWZYTFJ-UHFFFAOYSA-N.chk
#b3lyp/6-31+G(d) opt freq

gas opt

0 1
O    4.3157   -0.7480    0.0012
N    3.4596    0.1184    0.0011
O    3.7819    1.2930   -0.0045
C    2.0273   -0.2562    0.0018
S    0.6655    0.8615    0.0018
C   -0.4271   -0.4535    0.0020
N   -1.8123   -0.3377    0.0014
C   -2.4948    0.8149    0.0001
O   -1.9556    1.9046   -0.0011
N   -3.8251    0.6582   -0.0002
C   -4.1424   -0.7777    0.0010
C   -2.7612   -1.4611   -0.0043
N    0.2243   -1.5741    0.0020
C    1.5424   -1.4990   -0.0035
H   -4.4757    1.3776   -0.0011
H   -4.7023   -1.0451    0.8972
H   -4.7017   -1.0467   -0.8951
H   -2.6383   -2.0686   -0.9010
H   -2.6315   -2.0686    0.8914
H    2.1768   -2.3731   -0.0043


