%nprocshared=4
%mem=100MW
%chk=RHIROFAGUQOFLU-UHFFFAOYSA-N.chk
#b3lyp/6-31+G(d) opt freq

gas opt

0 1
Cl   -5.1072   -0.9264   -0.0017
C   -3.4217   -0.5107   -0.0015
C   -3.0427    0.8240   -0.0007
Cl   -4.2526    2.0689    0.0007
C   -1.7038    1.1633   -0.0006
Cl   -1.2279    2.8328    0.0010
C   -0.7377    0.1612   -0.0013
C   -1.1175   -1.1877   -0.0021
C   -2.4698   -1.5114    0.0035
Cl   -2.9624   -3.1761    0.0032
O   -0.0000   -1.9481   -0.0022
C    1.1175   -1.1876   -0.0015
C    2.4698   -1.5114   -0.0006
Cl    2.9624   -3.1761   -0.0014
C    3.4217   -0.5107    0.0004
Cl    5.1072   -0.9265    0.0009
C    3.0427    0.8240    0.0006
Cl    4.2526    2.0689    0.0013
C    1.7038    1.1633   -0.0003
Cl    1.2279    2.8328   -0.0013
C    0.7377    0.1612   -0.0009


