%nprocshared=4
%mem=100MW
%chk=RJMIEHBSYVWVIN-UHFFFAOYSA-N.chk
#b3lyp/6-31+G(d) opt freq

gas opt

0 1
O    4.2552   -0.9734    1.4266
C    4.9415   -0.3260    0.6719
O    6.2784   -0.3543    0.7888
C    4.2968    0.5084   -0.4048
C    4.7831    0.0357   -1.7762
C    2.7991    0.3617   -0.3249
C    2.0078    1.4736   -0.1019
C    0.6350    1.3426   -0.0281
C    0.0492    0.0922   -0.1781
N   -1.3406   -0.0440   -0.1044
C   -2.2150    0.9550    0.1061
O   -1.9122    2.1219    0.2625
C   -3.5946    0.4331    0.1202
C   -3.5431   -0.9470   -0.0925
C   -4.7011   -1.6881   -0.1265
C   -5.9260   -1.0660    0.0505
C   -5.9885    0.2999    0.2613
C   -4.8329    1.0529    0.2971
C   -2.0852   -1.2999   -0.2504
C    0.8468   -1.0227   -0.4019
C    2.2187   -0.8838   -0.4802
H    6.6459   -0.9072    1.4919
H    4.5673    1.5549   -0.2643
H    4.5126   -1.0108   -1.9167
H    4.3168    0.6392   -2.5550
H    5.8664    0.1418   -1.8340
H    2.4640    2.4456    0.0150
H    0.0176    2.2113    0.1463
H   -4.6555   -2.7544   -0.2916
H   -6.8348   -1.6488    0.0236
H   -6.9466    0.7791    0.3983
H   -4.8861    2.1189    0.4622
H   -1.9094   -1.7338   -1.2348
H   -1.7831   -2.0007    0.5278
H    0.3944   -1.9963   -0.5190
H    2.8394   -1.7502   -0.6546


