%nprocshared=4
%mem=100MW
%chk=RJNJWHFSKNJCTB-UHFFFAOYSA-N.chk
#b3lyp/6-31+G(d) opt freq

gas opt

0 1
O   -3.2442    0.0019    0.9774
C   -2.7698    0.0016   -0.1421
N   -1.4322    0.0011   -0.3072
C   -0.5498    0.0010    0.8622
C    0.8869    0.0004    0.4073
C    1.5463    1.1973    0.1985
C    2.8642    1.1967   -0.2187
C    3.5228   -0.0007   -0.4268
C    2.8637   -1.1976   -0.2171
C    1.5472   -1.1970    0.2044
N   -3.5817   -0.0039   -1.2179
H   -1.0538    0.0008   -1.2004
H   -0.7408    0.8911    1.4616
H   -0.7414   -0.8888    1.4619
H    1.0317    2.1328    0.3610
H    3.3791    2.1318   -0.3826
H    4.5522   -0.0011   -0.7534
H    3.3782   -2.1331   -0.3799
H    1.0322   -2.1321    0.3682
H   -4.5443   -0.0076   -1.0990
H   -3.2032   -0.0042   -2.1110


