%nprocshared=4
%mem=100MW
%chk=RKWGIWYCVPQPMF-UHFFFAOYSA-N.chk
#b3lyp/6-31+G(d) opt freq

gas opt

0 1
Cl   -4.4444   -2.2996    0.0946
C   -3.2046   -1.0854    0.0480
C   -3.0499   -0.2132    1.1108
C   -2.0626    0.7533    1.0732
C   -1.2302    0.8490   -0.0264
S    0.0278    2.0819   -0.0739
O    0.3196    2.3047   -1.4467
O   -0.3884    3.1140    0.8097
N    1.3907    1.4175    0.5921
C    2.0020    0.3819   -0.0165
O    1.5529   -0.0645   -1.0544
N    3.1112   -0.1588    0.5255
C    3.7757   -1.2845   -0.1359
C    5.0001   -1.7047    0.6797
C    5.6941   -2.8803   -0.0111
C   -1.3840   -0.0224   -1.0884
C   -2.3672   -0.9931   -1.0494
H   -3.7006   -0.2874    1.9696
H   -1.9417    1.4342    1.9027
H    1.7490    1.7736    1.4201
H    3.4695    0.1973    1.3536
H    3.0831   -2.1229   -0.2097
H    4.0905   -0.9842   -1.1354
H    5.6927   -0.8663    0.7534
H    4.6853   -2.0049    1.6791
H    5.0015   -3.7187   -0.0849
H    6.0089   -2.5800   -1.0106
H    6.5664   -3.1797    0.5699
H   -0.7332    0.0526   -1.9470
H   -2.4873   -1.6739   -1.8792


