%nprocshared=4
%mem=100MW
%chk=RLBIQVVOMOPOHC-UHFFFAOYSA-N.chk
#b3lyp/6-31+G(d) opt freq

gas opt

0 1
S   -1.7102   -1.0669   -1.2134
P   -2.2024    0.0710    0.1778
O   -2.2113    1.5919   -0.3504
C   -1.1659    2.1428   -1.1539
O   -3.6733   -0.3244    0.6997
C   -4.7633   -0.6020   -0.1816
O   -1.1480   -0.0713    1.3861
C    0.1514   -0.0763    0.9881
C    0.8534    1.1165    0.8925
C    2.1743    1.1087    0.4882
C    2.7967   -0.0865    0.1784
N    4.2120   -0.0920   -0.2546
O    4.8274    0.9557   -0.3378
O    4.7612   -1.1443   -0.5277
C    2.0992   -1.2766    0.2729
C    0.7798   -1.2747    0.6823
H   -1.0819    1.5748   -2.0804
H   -1.3950    3.1831   -1.3850
H   -0.2232    2.0908   -0.6091
H   -4.9629    0.2735   -0.7996
H   -4.5077   -1.4472   -0.8207
H   -5.6508   -0.8439    0.4031
H    0.3676    2.0504    1.1337
H    2.7213    2.0370    0.4136
H    2.5874   -2.2089    0.0300
H    0.2354   -2.2046    0.7559


