%nprocshared=4
%mem=100MW
%chk=RNFNDJAIBTYOQL-UHFFFAOYSA-N.chk
#b3lyp/6-31+G(d) opt freq

gas opt

0 1
Cl   -1.2005   -1.4348    0.4605
C   -0.2035    0.0051    0.0323
Cl    0.2194   -0.0560   -1.7194
Cl   -1.1405    1.5075    0.3723
C    1.0789    0.0040    0.8668
O    1.8215   -1.1868    0.5974
O    1.8691    1.1452    0.5274
H    0.8232    0.0409    1.9258
H    2.0833   -1.2860   -0.3282
H    2.6992    1.2092    1.0193


