%nprocshared=4
%mem=100MW
%chk=RQZAXGRLVPAYTJ-UHFFFAOYSA-N.chk
#b3lyp/6-31+G(d) opt freq

gas opt

0 1
O   -3.7221    1.7660   -0.5228
C   -4.0438    1.5357    0.6188
O   -3.7725    0.3396    1.1642
C   -2.9866   -0.5853    0.3673
C   -3.6309   -0.7909   -0.9795
O   -2.9492   -1.0522   -1.9414
C   -5.1259   -0.6703   -1.1259
C   -1.5648   -0.0612    0.1983
C   -1.1630    0.7470    1.4337
C   -0.7125   -1.3579    0.1213
C    0.7344   -0.9394    0.2977
C    1.6377   -2.1439    0.3634
C    2.9627   -1.9149    0.2566
C    3.9738   -3.0307    0.3171
C    3.3610   -0.5104    0.0771
C    4.4241   -0.0264    0.7575
C    4.8606    1.2988    0.5942
O    5.8080    1.7080    1.2351
C    4.1560    2.2145   -0.3740
C    2.6796    1.8178   -0.4488
C    2.5711    0.3490   -0.8711
C    3.1439    0.1928   -2.2812
C    1.1066   -0.0606   -0.8964
C    0.2012    1.1608   -1.0061
C   -1.2795    0.7438   -1.0534
C   -1.3134   -2.1897    1.2593
C   -2.8408   -1.9398    1.1049
C   -4.7441    2.5934    1.4323
H   -5.4292    0.3568   -0.9232
H   -5.4145   -0.9408   -2.1416
H   -5.6154   -1.3399   -0.4186
H   -1.2353    0.1164    2.3198
H   -0.1373    1.0981    1.3204
H   -1.8301    1.6024    1.5411
H   -0.8512   -1.8503   -0.8412
H    0.8349   -0.3604    1.2157
H    1.2436   -3.1414    0.4901
H    3.4581   -3.9813    0.4534
H    4.5429   -3.0561   -0.6122
H    4.6516   -2.8618    1.1538
H    4.9507   -0.6741    1.4428
H    4.2399    3.2449   -0.0286
H    4.6095    2.1208   -1.3607
H    2.2171    1.9505    0.5293
H    2.1708    2.4453   -1.1805
H    4.1897    0.5000   -2.2847
H    3.0706   -0.8501   -2.5897
H    2.5796    0.8171   -2.9739
H    0.9469   -0.6495   -1.7996
H    0.3674    1.8077   -0.1447
H    0.4475    1.7080   -1.9160
H   -1.4656    0.1385   -1.9406
H   -1.9136    1.6302   -1.0692
H   -1.0813   -3.2466    1.1286
H   -0.9592   -1.8328    2.2264
H   -3.3118   -1.8836    2.0863
H   -3.2931   -2.7387    0.5175
H   -5.8221    2.4980    1.3015
H   -4.4933    2.4671    2.4855
H   -4.4236    3.5802    1.0983


