%nprocshared=4
%mem=100MW
%chk=RTZZCYNQPHTPPL-UHFFFAOYSA-N.chk
#b3lyp/6-31+G(d) opt freq

gas opt

0 1
O    2.2604   -1.4387   -0.0052
N    1.9570   -0.2591    0.0025
O    2.8268    0.5934    0.0092
C    0.5313    0.1383   -0.0023
C   -0.4549   -0.8292   -0.0156
C   -1.7909   -0.4561   -0.0201
O   -2.7628   -1.4059   -0.0328
C   -2.1333    0.8885   -0.0113
C   -1.1436    1.8519    0.0020
C    0.1875    1.4772    0.0122
H   -0.1859   -1.8752   -0.0229
H   -3.0490   -1.6875    0.8469
H   -3.1728    1.1816   -0.0152
H   -1.4096    2.8986    0.0086
H    0.9599    2.2320    0.0230


