%nprocshared=4
%mem=100MW
%chk=RVCTZJVBWNFYRU-UHFFFAOYSA-N.chk
#b3lyp/6-31+G(d) opt freq

gas opt

0 1
Br   -2.4454   -0.7955   -0.0001
C   -0.5668   -0.5800   -0.0010
C   -0.0186    0.6920   -0.0006
N   -0.9043    1.8779   -0.0000
O   -0.4236    2.9970    0.0003
O   -2.1138    1.7346    0.0001
C    1.3504    0.8559   -0.0003
C    2.1848   -0.2643   -0.0008
C    3.6520   -0.0960   -0.0000
O    4.1355    1.0184    0.0011
O    4.4542   -1.1783   -0.0006
C    1.6259   -1.5440   -0.0017
C    0.2550   -1.6944    0.0038
H    1.7766    1.8482   -0.0000
H    5.4078   -1.0179    0.0000
H    2.2658   -2.4140   -0.0021
H   -0.1786   -2.6836    0.0032


