%nprocshared=4
%mem=100MW
%chk=RWRDLPDLKQPQOW-UHFFFAOYSA-N.chk
#b3lyp/6-31+G(d) opt freq

gas opt

0 1
N   -1.2285    0.1662    0.1179
C   -0.5416   -1.1382    0.0910
C    0.9474   -0.8647   -0.2082
C    1.1259    0.6132    0.2285
C   -0.2391    1.2254   -0.1737
H   -1.9883    0.1885   -0.5457
H   -0.6412   -1.6298    1.0587
H   -0.9679   -1.7657   -0.6917
H    1.5861   -1.5210    0.3829
H    1.1542   -0.9799   -1.2722
H    1.2846    0.6860    1.3044
H    1.9420    1.0860   -0.3179
H   -0.2470    1.4700   -1.2359
H   -0.4472    2.1136    0.4227


