%nprocshared=4
%mem=100MW
%chk=RXQCEGOUSFBKPI-UHFFFAOYSA-N.chk
#b3lyp/6-31+G(d) opt freq

gas opt

0 1
O    4.2243   -0.3947    0.0012
N    3.4170    0.5173    0.0008
O    3.8031    1.6725   -0.0041
C    1.9667    0.2219    0.0000
C    1.5302   -1.0901   -0.0002
C    0.1716   -1.3684   -0.0005
N   -0.2728   -2.6956   -0.0002
C   -0.7499   -0.3230   -0.0005
O   -2.0836   -0.5899   -0.0003
C   -2.9696    0.5313   -0.0004
C   -4.4176    0.0370   -0.0001
C   -5.3662    1.2374   -0.0002
C   -0.3046    0.9880   -0.0003
C    1.0521    1.2580    0.0053
H    2.2471   -1.8979   -0.0005
H    0.3697   -3.4222    0.0001
H   -1.2234   -2.8887   -0.0004
H   -2.7916    1.1350    0.8895
H   -2.7918    1.1348   -0.8904
H   -4.5956   -0.5667   -0.8900
H   -4.5954   -0.5665    0.8900
H   -6.3978    0.8853   -0.0000
H   -5.1882    1.8412    0.8897
H   -5.1884    1.8410   -0.8903
H   -1.0166    1.8001   -0.0003
H    1.3975    2.2813    0.0058


