%nprocshared=4
%mem=100MW
%chk=RZTAMFZIAATZDJ-UHFFFAOYSA-N.chk
#b3lyp/6-31+G(d) opt freq

gas opt

0 1
Cl    0.0399    2.0307   -1.6523
C    0.1625    1.7243    0.0521
C    0.4972    2.7516    0.9184
Cl    0.7945    4.3465    0.3007
C    0.5941    2.5062    2.2760
C    0.3569    1.2360    2.7676
C    0.0233    0.2106    1.9029
C   -0.0796    0.4554    0.5461
C   -0.4435   -0.6632   -0.3959
C    0.5896   -1.7495   -0.2963
C    0.3416   -2.8941    0.3636
C    1.4110   -3.9528    0.4452
N   -0.8696   -3.1095    0.9624
C   -1.9564   -2.3556    0.6124
C   -1.8045   -1.1888   -0.0374
C   -2.9505   -0.4394   -0.3905
O   -4.0592   -0.8525   -0.1059
O   -2.8147    0.7340   -1.0431
C   -4.0149    1.4381   -1.3685
C   -3.3407   -2.8395    0.9592
C    1.8499   -1.5641   -0.9104
O    1.9543   -1.6413   -2.1203
O    2.9367   -1.3017   -0.1547
C    4.1774   -1.1257   -0.8415
C    5.2858   -0.8386    0.1732
H    0.8555    3.3068    2.9522
H    0.4326    1.0448    3.8278
H   -0.1612   -0.7815    2.2878
H   -0.4646   -0.2805   -1.4163
H    2.0508   -3.7575    1.3058
H    0.9451   -4.9322    0.5537
H    2.0106   -3.9345   -0.4649
H   -0.9582   -3.7999    1.6379
H   -4.6382    0.8161   -2.0109
H   -4.5577    1.6733   -0.4530
H   -3.7642    2.3620   -1.8898
H   -3.2720   -3.7948    1.4796
H   -3.8301   -2.1092    1.6037
H   -3.9215   -2.9645    0.0454
H    4.4179   -2.0332   -1.3953
H    4.0935   -0.2886   -1.5346
H    5.0452    0.0689    0.7270
H    5.3697   -1.6757    0.8663
H    6.2322   -0.7044   -0.3507


