%nprocshared=4
%mem=100MW
%chk=SDDBCEWUYXVGCQ-UHFFFAOYSA-N.chk
#b3lyp/6-31+G(d) opt freq

gas opt

0 1
C   -2.8457    1.3752   -0.0014
C   -1.8413    0.2518   -0.0012
C   -0.4647    0.5350   -0.0006
C    0.4647   -0.5349   -0.0006
C    1.8412   -0.2518    0.0001
C    2.8456   -1.3754   -0.0004
C    2.2626    1.0423    0.0007
C    1.3486    2.0945    0.0006
C    0.0083    1.8584    0.0004
C   -0.0082   -1.8583   -0.0007
C   -1.3484   -2.0945   -0.0008
C   -2.2625   -1.0423    0.0039
H   -3.0875    1.6463   -1.0290
H   -3.7516    1.0528    0.5120
H   -2.4247    2.2392    0.5128
H    3.0880   -1.6456   -1.0281
H    3.7511   -1.0535    0.5140
H    2.4240   -2.2397    0.5127
H    3.3210    1.2571    0.0015
H    1.7094    3.1124    0.0010
H   -0.6883    2.6838    0.0003
H    0.6885   -2.6836   -0.0010
H   -1.7092   -3.1125   -0.0009
H   -3.3209   -1.2572    0.0041


