%nprocshared=4
%mem=100MW
%chk=SKIVFJLNDNKQPD-UHFFFAOYSA-N.chk
#b3lyp/6-31+G(d) opt freq

gas opt

0 1
S   -1.1395   -1.0649   -0.2106
O   -1.1793   -2.3200    0.4546
O   -1.5265   -0.8914   -1.5668
N   -2.0807   -0.0336    0.6799
C   -2.2106    1.2542    0.3043
O   -1.6382    1.6578   -0.6858
C   -3.0672    2.1927    1.1146
C    0.5219   -0.4904   -0.0899
C    1.3388   -0.9504    0.9266
C    2.6414   -0.5021    1.0241
C    3.1307    0.4119    0.0996
N    4.4478    0.8670    0.1950
C    2.3074    0.8720   -0.9202
C    1.0075    0.4153   -1.0152
H   -2.5385   -0.3565    1.4718
H   -2.4581    2.6684    1.8832
H   -3.4885    2.9562    0.4607
H   -3.8745    1.6322    1.5861
H    0.9576   -1.6608    1.6453
H    3.2788   -0.8615    1.8185
H    5.0219    0.5448    0.9075
H    4.7884    1.5053   -0.4511
H    2.6848    1.5826   -1.6406
H    0.3670    0.7723   -1.8081


