%nprocshared=4
%mem=100MW
%chk=SLAMLWHELXOEJZ-UHFFFAOYSA-N.chk
#b3lyp/6-31+G(d) opt freq

gas opt

0 1
O    1.3095   -2.2825   -0.7144
N    1.0590   -1.3767    0.0604
O    1.9079   -0.9951    0.8461
C   -0.2750   -0.7357    0.0431
C   -0.3825    0.6546   -0.0320
C    0.8339    1.4905   -0.0943
O    1.9254    0.9677   -0.1983
O    0.7327    2.8325   -0.0357
C   -1.6447    1.2510   -0.0483
C   -2.7766    0.4643    0.0097
C   -2.6629   -0.9125    0.0844
C   -1.4149   -1.5105    0.0952
H    1.5563    3.3373   -0.0802
H   -1.7348    2.3257   -0.1059
H   -3.7537    0.9243   -0.0029
H   -3.5522   -1.5236    0.1303
H   -1.3332   -2.5858    0.1534


