%nprocshared=4
%mem=100MW
%chk=SLGBZMMZGDRARJ-UHFFFAOYSA-N.chk
#b3lyp/6-31+G(d) opt freq

gas opt

0 1
C    0.3099   -1.4055    0.0003
C   -1.0646   -0.9686    0.0009
C   -1.3722    0.4344    0.0006
C   -0.3065    1.4063   -0.0003
C    1.0623    0.9712    0.0002
C    1.3712   -0.4377   -0.0005
C    2.7079   -0.8421    0.0000
C    3.7082    0.1033    0.0011
C    3.4114    1.4574    0.0018
C    2.1073    1.8977   -0.0005
C   -0.6247    2.7661   -0.0013
C   -1.9436    3.1597   -0.0012
C   -2.9679    2.2256    0.0002
C   -2.6970    0.8761    0.0007
C   -2.0832   -1.9240    0.0012
C   -1.7646   -3.2630    0.0010
C   -0.4435   -3.6830    0.0009
C    0.5898   -2.7737   -0.0052
H    2.9559   -1.8932   -0.0001
H    4.7403   -0.2147    0.0019
H    4.2158    2.1780    0.0027
H    1.8928    2.9562   -0.0003
H    0.1616    3.5065   -0.0017
H   -2.1843    4.2125   -0.0019
H   -3.9942    2.5619    0.0007
H   -3.5065    0.1611    0.0014
H   -3.1175   -1.6132    0.0021
H   -2.5561   -3.9979    0.0012
H   -0.2217   -4.7400    0.0014
H    1.6137   -3.1172   -0.0055


