%nprocshared=4
%mem=100MW
%chk=SMDHCQAYESWHAE-UHFFFAOYSA-N.chk
#b3lyp/6-31+G(d) opt freq

gas opt

0 1
F   -4.4133   -0.0345   -0.6261
C   -3.6370    0.2122    0.5113
F   -3.8943    1.5050    0.9801
F   -3.9589   -0.7173    1.5061
C   -2.1770    0.0866    0.1599
C   -1.4747    1.1949   -0.2769
C   -0.1364    1.0834   -0.5993
N    0.6146    2.2703   -1.0662
O    0.0524    3.3462   -1.1664
O    1.7948    2.1712   -1.3504
C    0.5041   -0.1439   -0.4843
N    1.8576   -0.2601   -0.8091
C    2.6594   -0.5750    0.3808
C    2.9157    0.7063    1.1767
C    3.6460    0.3619    2.4763
C    3.9024    1.6431    3.2722
C    2.0620   -1.2636   -1.8623
C    1.9044   -0.6033   -3.2334
C   -0.2043   -1.2552   -0.0453
N    0.4741   -2.5649    0.0787
O   -0.1709   -3.5615    0.3513
O    1.6774   -2.6460   -0.0920
C   -1.5411   -1.1355    0.2805
H   -1.9734    2.1486   -0.3663
H    2.1199   -1.2881    1.0041
H    3.6111   -1.0083    0.0734
H    3.5289    1.3854    0.5844
H    1.9649    1.1853    1.4103
H    3.0328   -0.3173    3.0687
H    4.5969   -0.1172    2.2428
H    4.5156    2.3223    2.6799
H    2.9516    2.1222    3.5058
H    4.4227    1.3978    4.1981
H    3.0639   -1.6838   -1.7743
H    1.3239   -2.0585   -1.7549
H    1.9690   -1.3631   -4.0122
H    0.9352   -0.1077   -3.2889
H    2.6968    0.1315   -3.3761
H   -2.0925   -1.9991    0.6219


