%nprocshared=4
%mem=100MW
%chk=SMQUZDBALVYZAC-UHFFFAOYSA-N.chk
#b3lyp/6-31+G(d) opt freq

gas opt

0 1
O   -2.7348   -0.7277   -0.0003
C   -1.9379    0.1867   -0.0106
C   -0.4973   -0.0950   -0.0071
C    0.4296    0.9605   -0.0190
O   -0.0016    2.2460   -0.0338
C    1.7877    0.6811   -0.0149
C    2.2255   -0.6285    0.0002
C    1.3152   -1.6734    0.0120
C   -0.0380   -1.4171    0.0141
H   -2.2884    1.2082   -0.0270
H   -0.1269    2.6291    0.8452
H    2.5043    1.4890   -0.0240
H    3.2846   -0.8399    0.0026
H    1.6687   -2.6938    0.0235
H   -0.7435   -2.2348    0.0236


