%nprocshared=4
%mem=100MW
%chk=SNHRLVCMMWUAJD-SUYDQAKGSA-N.chk
#b3lyp/6-31+G(d) opt freq

gas opt

0 1
F   -2.2016   -1.6662   -0.0975
C   -2.3378   -0.2824   -0.2515
C   -1.5807    0.1607   -1.4997
H   -1.9334   -0.4176   -2.3536
O   -1.8410    1.5459   -1.7356
C   -0.0651   -0.0442   -1.3470
C    0.3709    0.7372   -0.1224
C   -0.0744    2.1952   -0.2521
C    1.8543    0.6789    0.2280
O    2.4359   -0.5624   -0.2506
C    3.7098   -0.8104    0.0918
O    4.2853   -0.0708    0.8545
C    4.4223   -2.0113   -0.4749
C    5.8506   -2.0617    0.0715
C    6.5740   -3.2810   -0.5039
C    8.0022   -3.3314    0.0425
C    2.5785    1.8581   -0.3688
O    2.2672    2.9812   -0.0522
C    3.6910    1.6359   -1.3606
O    4.1297    2.8951   -1.8744
C    1.9125    0.7376    1.7748
H    2.4362   -0.1361    2.1628
C    2.6205    2.0168    2.2255
C    0.4400    0.7395    2.2688
C   -0.3166    0.0842    1.1067
H   -0.1488   -0.9928    1.1043
C   -1.8139    0.4208    1.0108
H   -1.9440    1.5000    0.9306
C   -2.5429   -0.0963    2.2526
C   -4.0273    0.2737    2.1716
C   -4.5777   -0.2641    0.8640
C   -5.6766   -1.0055    0.8854
C   -6.2280   -1.5614   -0.3600
O   -7.2572   -2.2106   -0.3495
C   -5.5061   -1.3149   -1.6197
C   -4.4148   -0.5657   -1.6184
C   -3.8215    0.0632   -0.4091
C   -3.9181    1.5811   -0.5753
H   -1.3933    1.9030   -2.5148
H    0.1544   -1.1030   -1.2094
H    0.4512    0.3314   -2.2304
H   -1.1616    2.2493   -0.1965
H    0.3604    2.7813    0.5575
H    0.2607    2.5936   -1.2098
H    3.8909   -2.9184   -0.1870
H    4.4516   -1.9368   -1.5620
H    6.3820   -1.1546   -0.2164
H    5.8213   -2.1362    1.1585
H    6.0426   -4.1881   -0.2160
H    6.6032   -3.2065   -1.5910
H    8.5176   -4.2000   -0.3675
H    8.5336   -2.4243   -0.2454
H    7.9729   -3.4059    1.1295
H    4.5236    1.1351   -0.8665
H    3.3286    1.0154   -2.1802
H    4.8464    2.8282   -2.5203
H    2.0745    2.8843    1.8548
H    2.6560    2.0480    3.3145
H    3.6355    2.0295    1.8284
H    0.3378    0.1485    3.1790
H    0.0879    1.7587    2.4280
H   -2.4418   -1.1802    2.3075
H   -2.1052    0.3536    3.1438
H   -4.5641   -0.1733    3.0084
H   -4.1383    1.3577    2.1994
H   -6.1709   -1.2032    1.8251
H   -5.8662   -1.7449   -2.5427
H   -3.9055   -0.4106   -2.5581
H   -4.9319    1.9081   -0.3440
H   -3.2162    2.0663    0.1030
H   -3.6751    1.8503   -1.6032


