%nprocshared=4
%mem=100MW
%chk=SNWQKAWITMVCQW-UHFFFAOYSA-N.chk
#b3lyp/6-31+G(d) opt freq

gas opt

0 1
S   -4.3966    0.7575   -0.0779
O   -4.9262    1.5852   -1.1044
O   -4.7253    0.9161    1.2955
N   -4.7981   -0.7985   -0.4781
C   -4.3996   -1.8201    0.3054
O   -3.7469   -1.5999    1.3036
C   -4.7650   -3.2360   -0.0588
C   -2.6430    0.8884   -0.1881
C   -2.0527    1.2606   -1.3820
C   -0.6785    1.3646   -1.4717
C    0.1108    1.0950   -0.3610
N    1.5024    1.1998   -0.4483
C    2.2869    0.3699    0.2675
O    1.7884   -0.5303    0.9144
C    3.7545    0.5545    0.2657
C    4.6022   -0.5131   -0.0860
C    4.0310   -1.8253   -0.4563
O    2.8284   -1.9547   -0.5669
O    4.8442   -2.8774   -0.6711
C    5.9817   -0.3253   -0.0834
C    6.5112    0.9038    0.2631
C    5.6781    1.9527    0.6087
C    4.3055    1.7864    0.6062
C   -0.4853    0.7214    0.8366
C   -1.8604    0.6244    0.9210
H   -5.3202   -0.9746   -1.2765
H   -3.9875   -3.6598   -0.6944
H   -4.8574   -3.8324    0.8489
H   -5.7143   -3.2400   -0.5944
H   -2.6669    1.4697   -2.2453
H   -0.2180    1.6549   -2.4045
H    1.9032    1.8698   -1.0239
H    4.4245   -3.7149   -0.9109
H    6.6382   -1.1399   -0.3518
H    7.5818    1.0459    0.2645
H    6.1024    2.9087    0.8778
H    3.6613    2.6098    0.8771
H    0.1256    0.5111    1.7020
H   -2.3245    0.3343    1.8520


