%nprocshared=4
%mem=100MW
%chk=SONNWYBIRXJNDC-VIFPVBQESA-N.chk
#b3lyp/6-31+G(d) opt freq

gas opt

0 1
O   -1.5525    1.4653    1.1529
C   -1.0923    0.1722    0.7551
H   -1.1395   -0.5078    1.6057
C   -1.9784   -0.3598   -0.3730
N   -3.3660   -0.4578    0.0991
C   -4.2478   -0.9663   -0.9601
C    0.3313    0.2727    0.2708
C    1.2160   -0.7614    0.5089
C    2.5260   -0.6685    0.0625
O    3.3981   -1.6845    0.2951
C    2.9445    0.4634   -0.6224
C    2.0561    1.4945   -0.8579
C    0.7492    1.3971   -0.4164
H   -1.5380    2.1231    0.4443
H   -1.9312    0.3202   -1.2236
H   -1.6273   -1.3461   -0.6764
H   -3.4267   -1.0317    0.9267
H   -3.9125   -1.9568   -1.2675
H   -5.2689   -1.0290   -0.5838
H   -4.2163   -0.2905   -1.8147
H    0.8880   -1.6412    1.0425
H    3.4166   -2.3543   -0.4021
H    3.9640    0.5383   -0.9707
H    2.3814    2.3758   -1.3906
H    0.0560    2.2043   -0.6018


