%nprocshared=4
%mem=100MW
%chk=SSLKKMZJCJBOML-UHFFFAOYSA-N.chk
#b3lyp/6-31+G(d) opt freq

gas opt

0 1
Cl   -5.4480    1.0013   -0.2517
C   -3.8952    0.2392   -0.1034
N   -2.7948    0.9598   -0.2017
N   -1.6250    0.4418   -0.0990
C   -1.4452   -0.8541    0.1129
S    0.1842   -1.5113    0.2461
C    1.2336   -0.0478    0.0277
C    2.6829   -0.4511    0.1170
O    2.9787   -1.6115    0.3090
N    3.6503    0.4778   -0.0166
C    5.0592    0.0857    0.0701
C    5.5734   -0.2803   -1.3236
C    3.2929    1.8794   -0.2485
C    3.1447    2.5969    1.0946
C   -2.5519   -1.6955    0.2305
C   -3.8117   -1.1288    0.1244
H    1.0394    0.3961   -0.9487
H    1.0100    0.6793    0.8084
H    5.6436    0.9160    0.4666
H    5.1566   -0.7755    0.7311
H    4.9890   -1.1106   -1.7200
H    5.4760    0.5809   -1.9846
H    6.6217   -0.5719   -1.2590
H    4.0757    2.3619   -0.8338
H    2.3498    1.9287   -0.7928
H    2.8788    3.6398    0.9221
H    2.3618    2.1144    1.6799
H    4.0878    2.5477    1.6389
H   -2.4304   -2.7546    0.4033
H   -4.7023   -1.7339    0.2078


