%nprocshared=4
%mem=100MW
%chk=SUSRORUBZHMPCO-UHFFFAOYSA-N.chk
#b3lyp/6-31+G(d) opt freq

gas opt

0 1
Cl   -3.6742    2.3101   -1.3957
C   -3.2407    0.8869   -0.5010
C   -1.9101    0.6403   -0.1892
O   -0.9455    1.5128   -0.5841
C    0.3292    1.2835   -0.1730
C    1.0793    0.2829   -0.7686
C    2.3878    0.0510   -0.3432
C    3.1946   -1.0140   -0.9736
O    4.2765   -0.7497   -1.4586
O    2.7305   -2.2780   -1.0106
C    3.5766   -3.2726   -1.6457
C    2.9321    0.8297    0.6805
N    4.3197    0.5890    1.1360
O    4.8363    1.3438    1.9404
O    4.9451   -0.3638    0.7064
C    2.1759    1.8236    1.2666
C    0.8812    2.0561    0.8401
C   -1.5670   -0.4972    0.5260
C   -2.5490   -1.3828    0.9270
C   -3.8741   -1.1359    0.6157
Cl   -5.1054   -2.2502    1.1215
C   -4.2202    0.0011   -0.0934
H    0.6526   -0.3161   -1.5595
H    3.7484   -2.9931   -2.6851
H    4.5307   -3.3261   -1.1214
H    3.0858   -4.2451   -1.6072
H    2.5980    2.4251    2.0581
H    0.2941    2.8356    1.3028
H   -0.5327   -0.6909    0.7692
H   -2.2817   -2.2688    1.4837
H   -5.2553    0.1922   -0.3352


