%nprocshared=4
%mem=100MW
%chk=TUNFSRHWOTWDNC-UHFFFAOYSA-N.chk
#b3lyp/6-31+G(d) opt freq

gas opt

0 1
O    6.8887   -1.3266    0.0005
C    6.9632   -0.1207    0.0012
O    8.1648    0.4775   -0.0040
C    5.7070    0.7119    0.0015
C    4.4850   -0.2088    0.0008
C    3.2097    0.6365    0.0011
C    1.9877   -0.2841    0.0005
C    0.7123    0.5611    0.0008
C   -0.5097   -0.3595    0.0002
C   -1.7850    0.4858    0.0005
C   -3.0070   -0.4349   -0.0001
C   -4.2823    0.4104    0.0002
C   -5.5044   -0.5102   -0.0005
C   -6.7797    0.3350   -0.0002
C   -8.0017   -0.5856   -0.0008
C   -9.2770    0.2596   -0.0005
H    8.9418   -0.0982   -0.0081
H    5.6879    1.3404    0.8918
H    5.6882    1.3414   -0.8882
H    4.5041   -0.8373   -0.8895
H    4.5039   -0.8383    0.8905
H    3.1906    1.2650    0.8915
H    3.1908    1.2660   -0.8885
H    2.0068   -0.9127   -0.8898
H    2.0066   -0.9136    0.8901
H    0.6933    1.1897    0.8911
H    0.6935    1.1906   -0.8888
H   -0.4906   -0.9880   -0.8901
H   -0.4908   -0.9890    0.8898
H   -1.8041    1.1143    0.8908
H   -1.8039    1.1153   -0.8891
H   -2.9879   -1.0634   -0.8905
H   -2.9881   -1.0644    0.8895
H   -4.3014    1.0389    0.8905
H   -4.3012    1.0399   -0.8895
H   -5.4853   -1.1388   -0.8908
H   -5.4855   -1.1398    0.8892
H   -6.7988    0.9635    0.8902
H   -6.7986    0.9645   -0.8898
H   -7.9826   -1.2142   -0.8911
H   -7.9828   -1.2151    0.8888
H   -9.2961    0.8882    0.8898
H   -9.2959    0.8891   -0.8901
H  -10.1476   -0.3962   -0.0009


