%nprocshared=4
%mem=100MW
%chk=TYMLOMAKGOJONV-UHFFFAOYSA-N.chk
#b3lyp/6-31+G(d) opt freq

gas opt

0 1
O    2.7060   -1.0548    0.0015
N    2.0970    0.0000    0.0009
O    2.7060    1.0548   -0.0040
C    0.6170    0.0000   -0.0000
C   -0.0729   -1.1985   -0.0002
C   -1.4539   -1.2021   -0.0006
C   -2.1500    0.0000   -0.0008
N   -3.5468   -0.0000   -0.0007
C   -1.4539    1.2021   -0.0006
C   -0.0729    1.1985    0.0051
H    0.4690   -2.1327   -0.0005
H   -1.9921   -2.1385   -0.0011
H   -4.0318   -0.8400   -0.0005
H   -4.0318    0.8400   -0.0008
H   -1.9921    2.1385   -0.0007
H    0.4690    2.1327    0.0053


