%nprocshared=4
%mem=100MW
%chk=TZFWDZFKRBELIQ-UHFFFAOYSA-N.chk
#b3lyp/6-31+G(d) opt freq

gas opt

0 1
Cl   -3.4406    0.4942   -0.0005
C   -1.7808   -0.0146   -0.0007
C   -0.7701    0.9291    0.0001
C    0.5539    0.5205   -0.0000
N    1.7678    1.2072    0.0006
H    1.8818    2.1705    0.0013
C    2.7533    0.2880    0.0001
O    3.9440    0.5351    0.0004
O    2.2172   -0.9425   -0.0008
C    0.8653   -0.8393   -0.0009
C   -0.1539   -1.7781   -0.0017
C   -1.4721   -1.3645    0.0042
H   -1.0121    1.9816    0.0005
H    0.0820   -2.8320   -0.0028
H   -2.2655   -2.0973    0.0039


