%nprocshared=4
%mem=100MW
%chk=TZIHFWKZFHZASV-UHFFFAOYSA-N.chk
#b3lyp/6-31+G(d) opt freq

gas opt

0 1
O   -1.7172    0.0785   -0.0000
C   -0.5955   -0.3704   -0.0004
O    0.4595    0.4596    0.0003
C    1.7775   -0.1496   -0.0002
H   -0.4416   -1.4393    0.0032
H    1.8917   -0.7693    0.8893
H    1.8917   -0.7677   -0.8907
H    2.5385    0.6308    0.0005


