%nprocshared=4
%mem=100MW
%chk=TZYQTWHRLVDYPL-UHFFFAOYSA-N.chk
#b3lyp/6-31+G(d) opt freq

gas opt

0 1
O   -2.2266   -0.0458   -0.0010
C   -1.0129   -0.0088   -0.0011
N   -0.3451    1.1569    0.0006
C    0.9585    1.2023    0.0010
N    1.7696    0.1432   -0.0006
C    1.3257   -1.0802   -0.0023
C   -0.1791   -1.2779    0.0034
H    1.4197    2.1789    0.0024
H    2.0020   -1.9223   -0.0040
H   -0.4424   -1.8635    0.8842
H   -0.4498   -1.8584   -0.8786


