%nprocshared=4
%mem=100MW
%chk=UAYYWDWWESZIPA-UHFFFAOYSA-N.chk
#b3lyp/6-31+G(d) opt freq

gas opt

0 1
F    1.9669   -3.3155   -0.0622
C    1.1908   -2.2104   -0.0218
C    1.7833   -0.9460    0.0380
N    3.1714   -0.8338    0.0559
C    3.6433    0.0605   -1.0176
C    4.6424    0.6493   -0.0119
N    5.9213   -0.0702    0.0570
C    4.8077    2.1673   -0.1086
C    3.6064    0.1904    1.0238
C    1.0011    0.1966    0.0791
C   -0.3845    0.0866    0.0613
N   -1.1765    1.2148    0.1021
C   -0.5267    2.5264    0.1639
C   -0.9067    3.5541   -0.9039
C   -1.3966    3.7290    0.5350
C   -2.5149    1.1621    0.0872
C   -3.2024   -0.0329    0.0300
C   -4.6717   -0.0489    0.0150
O   -5.2914    0.9963    0.0531
O   -5.3325   -1.2226   -0.0411
C   -2.4400   -1.2916   -0.0162
O   -3.0014   -2.3724   -0.0678
C   -0.9713   -1.1905    0.0015
C   -0.1693   -2.3338   -0.0451
H    4.1192   -0.4670   -1.8443
H    2.8900    0.7747   -1.3503
H    6.5400    0.3558    0.7306
H    5.7761   -1.0465    0.2662
H    3.8476    2.6497    0.0743
H    5.5303    2.5023    0.6356
H    5.1631    2.4313   -1.1047
H    2.8433    0.9392    1.2360
H    4.0510   -0.2270    1.9273
H    1.4665    1.1700    0.1252
H    0.5052    2.5237    0.5152
H   -0.1250    4.2278   -1.2548
H   -1.6403    3.2544   -1.6524
H   -2.4524    3.5444    0.7331
H   -0.9372    4.5178    1.1307
H   -3.0743    2.0853    0.1215
H   -6.2986   -1.1826   -0.0488
H   -0.6235   -3.3123   -0.0955


