%nprocshared=4
%mem=100MW
%chk=UCMIRNVEIXFBKS-UHFFFAOYSA-N.chk
#b3lyp/6-31+G(d) opt freq

gas opt

0 1
O    1.1244   -1.2140   -0.0199
C    1.0478   -0.0084    0.0020
O    2.1653    0.7352    0.0012
C   -0.3024    0.6606    0.0239
C   -1.3999   -0.4053    0.0133
N   -2.7161    0.2468    0.0347
H    3.0080    0.2613   -0.0174
H   -0.3931    1.2665    0.9254
H   -0.4064    1.2980   -0.8542
H   -1.3093   -1.0112   -0.8883
H   -1.2959   -1.0427    0.8914
H   -2.8123    0.8924   -0.7347
H   -3.4584   -0.4366    0.0281


