%nprocshared=4
%mem=100MW
%chk=UCNVFOCBFJOQAL-UHFFFAOYSA-N.chk
#b3lyp/6-31+G(d) opt freq

gas opt

0 1
Cl   -1.5033   -3.0213   -0.0200
C   -0.0000   -2.1533   -0.0024
C    0.0000   -0.8113   -0.0014
C    1.2836   -0.0702    0.0136
C    2.1566   -0.1610   -1.0698
C    3.3502    0.5309   -1.0507
C    3.6817    1.3143    0.0416
Cl    5.1848    2.1827    0.0590
C    2.8184    1.4079    1.1200
C    1.6197    0.7247    1.1087
C   -1.2836   -0.0701   -0.0153
C   -2.1566   -0.1626    1.0679
C   -3.3501    0.5293    1.0499
C   -3.6816    1.3144   -0.0413
Cl   -5.1847    2.1828   -0.0573
C   -2.8184    1.4097   -1.1195
C   -1.6197    0.7264   -1.1092
Cl    1.5032   -3.0213    0.0210
H    1.8991   -0.7721   -1.9222
H    4.0272    0.4610   -1.8892
H    3.0819    2.0201    1.9699
H    0.9469    0.7987    1.9502
H   -1.8991   -0.7750    1.9195
H   -4.0272    0.4581    1.8883
H   -3.0819    2.0231   -1.9684
H   -0.9469    0.8016   -1.9506


