%nprocshared=4
%mem=100MW
%chk=UCTWMZQNUQWSLP-UHFFFAOYSA-N.chk
#b3lyp/6-31+G(d) opt freq

gas opt

0 1
O   -1.9491    1.4028    1.2296
C   -1.5058    0.1222    0.7761
C   -2.3409   -0.3084   -0.4314
N   -3.7558   -0.3887   -0.0447
C   -4.5898   -0.8003   -1.1818
C   -0.0543    0.2046    0.3794
C    0.7835   -0.8731    0.6004
C    2.1179   -0.7991    0.2359
O    2.9431   -1.8583    0.4521
C    2.6121    0.3614   -0.3526
O    3.9213    0.4387   -0.7126
C    1.7675    1.4374   -0.5712
C    0.4352    1.3550   -0.2097
H   -1.8739    2.1026    0.5665
H   -1.6226   -0.6075    1.5774
H   -2.2241    0.4213   -1.2327
H   -2.0028   -1.2852   -0.7773
H   -3.8815   -1.0107    0.7398
H   -4.4886   -0.0741   -1.9883
H   -4.2673   -1.7805   -1.5329
H   -5.6324   -0.8518   -0.8679
H    0.3976   -1.7723    1.0574
H    2.9812   -2.4839   -0.2843
H    4.0991    0.1416   -1.6155
H    2.1485    2.3391   -1.0273
H   -0.2224    2.1944   -0.3810


