%nprocshared=4
%mem=100MW
%chk=UDUNORRTIFRHKX-UHFFFAOYSA-N.chk
#b3lyp/6-31+G(d) opt freq

gas opt

0 1
Cl   -2.6765   -2.3150   -0.2250
C   -4.3921   -2.0856   -0.0912
C   -4.7941   -0.8113    0.0798
N   -3.7972    0.1424    0.1260
C   -3.6694    1.0124    1.2977
C   -2.2243    1.3730    1.4987
C   -1.5170    1.9582    0.5461
C   -0.0795    2.3096    0.8310
C    0.8159    1.2045    0.3330
O    0.3360    0.2314   -0.1988
O    2.1466    1.3012    0.4801
C    2.9472    0.1994   -0.0232
C    4.4059    0.4824    0.2284
O    4.7380    1.5114    0.7778
N    5.3413   -0.4080   -0.1571
C    6.7593   -0.1328    0.0875
C    7.5188   -1.4327    0.1556
O    6.9354   -2.4813    0.0144
O    8.8433   -1.4255    0.3732
C    9.5095   -2.7146    0.4266
C    7.3163    0.7242   -1.0510
C    6.5453    2.0439   -1.1202
C    8.7972    1.0115   -0.7956
C   -2.0619    2.2772   -0.7614
C   -3.2801    2.7594   -0.9871
C   -4.2689    3.0479    0.0363
C   -4.4734    2.2638    1.0825
C   -6.2104   -0.3052    0.2264
Cl   -6.4220    0.9440   -1.0564
C   -7.4767   -1.1307    0.2113
C   -7.5747   -2.4557    0.0658
C   -6.5049   -3.4345   -0.1132
C   -5.1711   -3.2615   -0.1826
H   -3.1812    0.2366   -0.6174
H   -4.0396    0.4901    2.1800
H   -1.7519    1.1492    2.4438
H    0.1746    3.2399    0.3231
H    0.0584    2.4327    1.9052
H    2.6621   -0.7201    0.4880
H    2.7784    0.0871   -1.0942
H    5.0757   -1.2309   -0.5965
H    6.8682    0.4015    1.0313
H   10.5741   -2.5661    0.6077
H    9.0834   -3.3107    1.2334
H    9.3713   -3.2345   -0.5214
H    7.2074    0.1899   -1.9948
H    6.6542    2.5782   -0.1764
H    6.9421    2.6545   -1.9313
H    5.4903    1.8392   -1.3022
H    9.3465    0.0714   -0.7463
H    9.1941    1.6221   -1.6067
H    8.9061    1.5459    0.1482
H   -1.4269    2.1098   -1.6189
H   -3.5561    2.9522   -2.0133
H   -4.8646    3.9435   -0.0608
H   -5.2368    2.5294    1.7989
H   -6.2314    0.2532    1.1623
H   -8.4041   -0.5904    0.3316
H   -8.5777   -2.8560    0.0832
H   -6.8363   -4.4579   -0.2092
H   -4.6039   -4.1701   -0.3210


