%nprocshared=4
%mem=100MW
%chk=UGQVTTBSGZLNIL-UHFFFAOYSA-N.chk
#b3lyp/6-31+G(d) opt freq

gas opt

0 1
S   -2.9442   -0.1614   -0.0654
O   -3.2664   -1.4848   -0.4704
O   -3.4275    0.9955   -0.7341
N   -3.4265   -0.0249    1.5129
C   -1.1859   -0.0492   -0.0850
S   -0.2693    1.4395   -0.2470
C    1.2548    0.5581   -0.1605
C    2.6147    1.2107   -0.2444
O    2.5790    2.4539    0.4594
C    3.7012    0.3307    0.3577
C    3.7534   -1.0115   -0.3825
S    2.2974   -1.9800    0.1171
C    1.0071   -0.7623   -0.0156
C   -0.3529   -1.0768    0.0263
H   -3.9218   -0.7456    1.9327
H   -3.2138    0.7757    2.0176
H    2.8531    1.4018   -1.2907
H    1.9335    3.0843    0.1116
H    4.6649    0.8319    0.2673
H    3.4828    0.1551    1.4111
H    3.7312   -0.8404   -1.4588
H    4.6634   -1.5470   -0.1120
H   -0.7046   -2.0918    0.1388


