%nprocshared=4
%mem=100MW
%chk=UJOBWOGCFQCDNV-UHFFFAOYSA-N.chk
#b3lyp/6-31+G(d) opt freq

gas opt

0 1
N   -0.0000   -1.6580    0.0028
H   -0.0000   -2.6280    0.0032
C    1.1353   -0.8673    0.0018
C    0.7373    0.4781    0.0006
C   -0.7373    0.4781    0.0009
C   -1.1353   -0.8673   -0.0029
C   -2.4919   -1.1759   -0.0034
C   -3.4296   -0.1653   -0.0007
C   -3.0344    1.1632    0.0030
C   -1.6949    1.4890   -0.0002
C    1.6949    1.4890   -0.0010
C    3.0344    1.1633   -0.0015
C    3.4296   -0.1653   -0.0007
C    2.4919   -1.1759    0.0010
H   -2.8107   -2.2078   -0.0063
H   -4.4813   -0.4110   -0.0019
H   -3.7785    1.9460    0.0048
H   -1.3893    2.5249    0.0028
H    1.3892    2.5249   -0.0023
H    3.7785    1.9460   -0.0027
H    4.4813   -0.4110   -0.0014
H    2.8107   -2.2078    0.0018


