%nprocshared=4
%mem=100MW
%chk=UMGDCJDMYOKAJW-UHFFFAOYSA-N.chk
#b3lyp/6-31+G(d) opt freq

gas opt

0 1
S   -1.2876    0.0000    0.0001
C    0.4244    0.0000   -0.0017
N    1.0983    1.1672    0.0004
N    1.0983   -1.1672    0.0004
H    0.6133    2.0072    0.0029
H    2.0683    1.1672   -0.0006
H    0.6133   -2.0072    0.0029
H    2.0683   -1.1672   -0.0006


