%nprocshared=4
%mem=100MW
%chk=UMIPWJGWASORKV-UHFFFAOYSA-N.chk
#b3lyp/6-31+G(d) opt freq

gas opt

0 1
C   -3.2664    0.0254    0.0000
C   -4.2658    0.6413   -0.0000
C   -2.0132   -0.7469    0.0000
C   -0.8223    0.2136    0.0000
C    0.4803   -0.5891   -0.0000
C    1.6712    0.3713    0.0000
C    2.9737   -0.4314   -0.0000
C    4.1647    0.5291    0.0000
H   -5.1597    1.1922   -0.0000
H   -1.9735   -1.3750    0.8900
H   -1.9735   -1.3750   -0.8900
H   -0.8620    0.8416   -0.8900
H   -0.8620    0.8416    0.8900
H    0.5200   -1.2172    0.8900
H    0.5200   -1.2172   -0.8900
H    1.6315    0.9994   -0.8900
H    1.6315    0.9994    0.8900
H    3.0135   -1.0594    0.8900
H    3.0135   -1.0594   -0.8900
H    5.0927   -0.0428   -0.0000
H    4.1250    1.1572   -0.8900
H    4.1250    1.1572    0.8900


