%nprocshared=4
%mem=100MW
%chk=UNAHYJYOSSSJHH-UHFFFAOYSA-N.chk
#b3lyp/6-31+G(d) opt freq

gas opt

0 1
S   -3.7634    0.0772   -0.1081
O   -4.2010   -1.2220   -0.4823
O   -4.1047    1.2509   -0.8327
N   -4.2863    0.3175    1.4447
C   -2.0031    0.0151   -0.0620
C   -1.3601   -1.1949    0.1241
C    0.0195   -1.2471    0.1603
N    0.7070   -2.5429    0.3591
O    0.0559   -3.5638    0.4908
O    1.9237   -2.5882    0.3909
C    0.7613   -0.0824    0.0096
N    2.1567   -0.1317    0.0453
C    2.7296    0.2247   -1.2596
C    2.6673   -0.9868   -2.1920
C    3.1518   -0.5830   -3.5859
C    2.6871    0.7338    1.1072
C    2.7372   -0.0455    2.4228
C    3.1732    0.8892    3.5530
C    0.1121    1.1315   -0.1771
N    0.8985    2.3752   -0.3382
O    0.3317    3.4522   -0.3856
O    2.1123    2.3215   -0.4232
C   -1.2676    1.1758   -0.2176
H   -3.6430    0.3948    2.1666
H   -5.2359    0.3811    1.6323
H   -1.9374   -2.1000    0.2416
H    2.1608    1.0470   -1.6938
H    3.7678    0.5301   -1.1294
H    3.3054   -1.7793   -1.8010
H    1.6398   -1.3450   -2.2541
H    2.5137    0.2096   -3.9769
H    4.1793   -0.2247   -3.5238
H    3.1074   -1.4461   -4.2502
H    3.6918    1.0618    0.8406
H    2.0401    1.6032    1.2243
H    1.7487   -0.4476    2.6449
H    3.4509   -0.8645    2.3330
H    4.1617    1.2913    3.3309
H    2.4595    1.7082    3.6428
H    3.2089    0.3340    4.4903
H   -1.7729    2.1192   -0.3628


