%nprocshared=4
%mem=100MW
%chk=UQIKOYWGLUXMNE-UHFFFAOYSA-N.chk
#b3lyp/6-31+G(d) opt freq

gas opt

0 1
O   -0.8211   -0.7896   -0.8019
C   -0.9515    0.3263   -0.3452
C    0.2584    1.0988    0.1136
O    1.4515    0.2976   -0.0938
C    2.6274    0.8469    0.2670
O    2.6554    1.9646    0.7419
C    3.8829    0.0900    0.0852
C    5.1035    0.6564    0.4581
C    6.2720   -0.0562    0.2860
C    6.2365   -1.3291   -0.2552
C    5.0305   -1.8962   -0.6273
C    3.8538   -1.1972   -0.4550
N   -2.1778    0.8777   -0.2530
C   -3.4368    0.2411   -0.6668
C   -3.6662   -1.0121    0.1381
O   -2.8629   -1.3474    0.9761
O   -4.7629   -1.7558   -0.0759
C   -4.9187   -2.9495    0.7360
C   -4.5714    1.2523   -0.3984
C   -3.8260    2.6129   -0.3757
C   -2.4797    2.2166    0.2853
H    0.3376    2.0233   -0.4584
H    0.1587    1.3346    1.1731
H    5.1326    1.6501    0.8800
H    7.2168    0.3807    0.5740
H    7.1544   -1.8825   -0.3882
H    5.0099   -2.8899   -1.0498
H    2.9131   -1.6409   -0.7459
H   -3.3976   -0.0024   -1.7285
H   -5.8438   -3.4568    0.4625
H   -4.0741   -3.6173    0.5659
H   -4.9549   -2.6705    1.7891
H   -5.3069    1.2290   -1.2025
H   -5.0439    1.0553    0.5638
H   -3.6725    2.9913   -1.3863
H   -4.3599    3.3407    0.2354
H   -2.5856    2.1803    1.3695
H   -1.6968    2.9205    0.0031


