%nprocshared=4
%mem=100MW
%chk=URAYPUMNDPQOKB-UHFFFAOYSA-N.chk
#b3lyp/6-31+G(d) opt freq

gas opt

0 1
O    1.0882   -1.9828   -0.9949
C    0.5816   -2.0810    0.0976
O   -0.0905   -1.0438    0.6214
C   -0.1681    0.1641   -0.1807
C   -1.4716    0.9014    0.1326
O   -2.5999    0.0890   -0.2862
C   -3.8256    0.5960   -0.0803
O   -3.9515    1.6826    0.4330
C   -5.0446   -0.1901   -0.4892
C    1.0211    1.0699    0.1450
O    2.2526    0.4170   -0.2620
C    3.3968    1.0841   -0.0442
O    3.3703    2.1774    0.4695
C    4.7145    0.4695   -0.4404
C    0.6989   -3.3699    0.8695
H   -0.1450   -0.0998   -1.2380
H   -1.5355    1.0868    1.2048
H   -1.4894    1.8511   -0.4020
H   -4.7348   -1.1372   -0.9308
H   -5.6634   -0.3829    0.3872
H   -5.6172    0.3814   -1.2196
H    0.9163    2.0137   -0.3900
H    1.0489    1.2615    1.2177
H    4.5394   -0.5104   -0.8845
H    5.2122    1.1133   -1.1656
H    5.3448    0.3611    0.4422
H    1.2710   -4.0917    0.2865
H    1.2073   -3.1821    1.8152
H   -0.2967   -3.7683    1.0650


