%nprocshared=4
%mem=100MW
%chk=UREBDLICKHMUKA-DVTGEIKXSA-N.chk
#b3lyp/6-31+G(d) opt freq

gas opt

0 1
F   -1.6235   -0.0418   -1.6607
C   -1.3163    0.2253   -0.3222
C   -0.4589    1.4849   -0.2458
H   -0.9767    2.2989   -0.7532
O   -0.2691    1.8371    1.1261
C    0.9147    1.2773   -0.9033
C    1.5758    0.1081   -0.1990
C    1.6131    0.3650    1.3088
C    2.9653   -0.2839   -0.6912
O    3.1227    0.0734   -2.0658
C    4.0241    0.3860    0.1462
O    4.0443    0.2178    1.3418
C    5.0576    1.2658   -0.5086
O    5.9439    1.7814    0.4868
C    3.0401   -1.8221   -0.5245
H    3.2616   -2.2919   -1.4828
C    4.1158   -2.1876    0.5002
C    1.6437   -2.2763   -0.0183
C    0.7182   -1.1509   -0.4973
H    0.5377   -1.2387   -1.5687
C   -0.5965   -0.9901    0.2836
H   -0.3795   -0.8208    1.3383
C   -1.4506   -2.2499    0.1279
C   -2.7425   -2.1014    0.9377
C   -3.4353   -0.8271    0.4928
C   -4.7119   -0.8791    0.1391
C   -5.4115    0.3319   -0.3175
O   -6.5929    0.2962   -0.6068
C   -4.6495    1.5882   -0.4169
C   -3.3775    1.6184   -0.0515
C   -2.6153    0.4481    0.4579
C   -2.2282    0.7371    1.9097
H    0.2679    2.6304    1.2578
H    0.7891    1.0503   -1.9620
H    1.5226    2.1743   -0.7845
H    0.5990    0.3368    1.7074
H    2.2155   -0.4033    1.7935
H    2.0514    1.3446    1.4998
H    3.9879   -0.1519   -2.4341
H    5.6253    0.6821   -1.2332
H    4.5615    2.0927   -1.0168
H    6.6367    2.3577    0.1362
H    3.8711   -1.7350    1.4611
H    4.1601   -3.2712    0.6097
H    5.0827   -1.8171    0.1598
H    1.3609   -3.2277   -0.4689
H    1.6313   -2.3447    1.0694
H   -1.6965   -2.3935   -0.9242
H   -0.8926   -3.1133    0.4903
H   -3.3923   -2.9570    0.7539
H   -2.5058   -2.0399    1.9999
H   -5.2427   -1.8185    0.1862
H   -5.1274    2.4829   -0.7875
H   -2.8460    2.5540   -0.1436
H   -3.0859    0.5555    2.5574
H   -1.4063    0.0842    2.2034
H   -1.9167    1.7776    2.0024


