%nprocshared=4
%mem=100MW
%chk=VAOCPAMSLUNLGC-UHFFFAOYSA-N.chk
#b3lyp/6-31+G(d) opt freq

gas opt

0 1
O    1.1631   -2.0231   -0.3853
N    1.7625   -1.0099   -0.0728
O    2.9543   -1.0590    0.1737
C    1.0439    0.2821    0.0014
N   -0.2848    0.4925   -0.2514
C   -1.2655   -0.5213   -0.6474
C   -1.9100   -1.1232    0.6029
O   -2.8665   -2.1121    0.2167
C   -0.5230    1.8089   -0.0673
C   -1.8554    2.4925   -0.2360
N    0.5918    2.3911    0.2810
C    1.5704    1.4755    0.3363
H   -2.0350   -0.0602   -1.2666
H   -0.7666   -1.3079   -1.2135
H   -1.1405   -1.5843    1.2222
H   -2.4089   -0.3366    1.1691
H   -3.3154   -2.5367    0.9606
H   -2.3929    2.4798    0.7121
H   -1.6973    3.5241   -0.5503
H   -2.4397    1.9679   -0.9920
H    2.6014    1.6635    0.5975


