%nprocshared=4
%mem=100MW
%chk=VDTNNGKXZGSZIP-UHFFFAOYSA-N.chk
#b3lyp/6-31+G(d) opt freq

gas opt

0 1
S    1.2264    1.8066    0.0370
O    1.8848    2.6641   -0.8852
O    1.0586    2.1257    1.4115
N   -0.2914    1.5435   -0.5707
C   -1.1477    0.7333    0.0825
O   -0.8059    0.1956    1.1180
N   -2.3830    0.5192   -0.4121
C   -3.3139   -0.3615    0.2980
C   -4.6354   -0.4320   -0.4698
C   -5.6076   -1.3518    0.2718
C   -6.9291   -1.4223   -0.4960
C    2.0832    0.2679   -0.0155
C    2.8149   -0.0764   -1.1373
C    3.4876   -1.2817   -1.1817
C    3.4287   -2.1486   -0.0979
N    4.1082   -3.3682   -0.1393
C    2.6928   -1.7996    1.0274
C    2.0271   -0.5903    1.0675
H   -0.5641    1.9726   -1.3968
H   -2.6558    0.9482   -1.2382
H   -2.8836   -1.3601    0.3731
H   -3.4953    0.0322    1.2981
H   -5.0657    0.5666   -0.5449
H   -4.4541   -0.8257   -1.4699
H   -5.1773   -2.3504    0.3469
H   -5.7889   -0.9581    1.2719
H   -7.3594   -0.4237   -0.5711
H   -6.7477   -1.8160   -1.4961
H   -7.6217   -2.0776    0.0323
H    2.8599    0.5978   -1.9797
H    4.0585   -1.5502   -2.0583
H    4.6220   -3.6107   -0.9255
H    4.0664   -3.9727    0.6181
H    2.6449   -2.4713    1.8718
H    1.4551   -0.3181    1.9422


