%nprocshared=4
%mem=100MW
%chk=VGGSQFUCUMXWEO-UHFFFAOYSA-N.chk
#b3lyp/6-31+G(d) opt freq

gas opt

0 1
C    0.6550   -0.0000   -0.0004
C   -0.6550    0.0000    0.0001
H    1.1950    0.9353    0.0006
H    1.1950   -0.9353    0.0028
H   -1.1950   -0.9353   -0.0009
H   -1.1950    0.9353    0.0014


