%nprocshared=4
%mem=100MW
%chk=VGQLNJWOULYVFV-UHFFFAOYSA-N.chk
#b3lyp/6-31+G(d) opt freq

gas opt

0 1
O    0.6079    1.5495    1.1686
C    0.5909    1.3055   -0.0146
O    1.6923    1.5022   -0.7563
C    2.8669    2.0101   -0.0703
C   -0.6648    0.7744   -0.6565
C   -0.6634   -0.7740   -0.6560
C    0.5933   -1.3024   -0.0138
O    0.6100   -1.5477    1.1692
O    1.6940   -1.5006   -0.7559
C    2.8679   -2.0115   -0.0708
C   -1.9156   -1.1443    0.2010
C   -3.1014   -0.6610   -0.6429
C   -3.1026    0.6570   -0.6433
C   -1.9177    1.1430    0.2003
C   -1.8702   -0.0003    1.2790
H    3.6836    2.1231   -0.7833
H    2.6373    2.9779    0.3755
H    3.1617    1.3105    0.7119
H   -0.7661    1.1572   -1.6721
H   -0.7640   -1.1576   -1.6713
H    3.6841   -2.1254   -0.7841
H    3.1642   -1.3133    0.7120
H    2.6364   -2.9793    0.3741
H   -1.9664   -2.1713    0.5628
H   -3.8146   -1.2933   -1.1507
H   -3.8168    1.2877   -1.1518
H   -1.9704    2.1701    0.5615
H   -2.7477   -0.0009    1.9257
H   -0.9405    0.0007    1.8479


