%nprocshared=4
%mem=100MW
%chk=VGVIKVCCUATMNG-UHFFFAOYSA-N.chk
#b3lyp/6-31+G(d) opt freq

gas opt

0 1
Cl   -3.8795   -0.8524   -0.0511
C   -2.1841   -0.4796   -0.0290
C   -1.7681    0.8381    0.0763
Cl   -2.9429    2.1116    0.1857
C   -0.4208    1.1398    0.0947
C    0.5212    0.1167    0.0072
C    0.0976   -1.2075   -0.0985
Cl    1.2650   -2.4877   -0.2080
C   -1.2527   -1.4995   -0.1108
C    1.9701    0.4354    0.0261
C    2.8241   -0.2431    0.8933
C    4.1712    0.0571    0.9063
C    4.6738    1.0297    0.0609
C    3.8306    1.7066   -0.8017
C    2.4829    1.4102   -0.8275
H   -0.0976    2.1671    0.1764
H   -1.5818   -2.5249   -0.1924
H    2.4326   -1.0021    1.5543
H    4.8340   -0.4681    1.5781
H    5.7285    1.2617    0.0746
H    4.2283    2.4654   -1.4594
H    1.8254    1.9391   -1.5016


