%nprocshared=4
%mem=100MW
%chk=VGZSUPCWNCWDAN-UHFFFAOYSA-N.chk
#b3lyp/6-31+G(d) opt freq

gas opt

0 1
S    0.7674   -2.4597   -0.1337
O    1.3612   -3.4442    0.7013
O    0.4845   -2.6753   -1.5094
N   -0.6686   -2.0458    0.5798
C   -1.4496   -1.0991    0.0228
O   -1.0999   -0.5489   -1.0035
N   -2.6183   -0.7623    0.6035
C   -3.4673    0.2667   -0.0020
C   -4.9202    0.0440    0.4228
C   -5.8068    1.1188   -0.2095
C   -5.3450    2.5006    0.2576
C   -3.8921    2.7233   -0.1672
C   -3.0055    1.6486    0.4651
C    1.8147   -1.0448   -0.0570
C    2.6451   -0.8614    1.0350
C    3.4676    0.2432    1.1024
C    3.4616    1.1793    0.0634
C    4.3368    2.3608    0.1273
O    5.0655    2.5246    1.0824
C    4.3272    3.3671   -0.9945
C    2.6200    0.9866   -1.0368
C    1.8069   -0.1256   -1.0917
H   -0.9476   -2.4848    1.3986
H   -2.8973   -1.2012    1.4222
H   -3.3928    0.2066   -1.0878
H   -5.2492   -0.9404    0.0900
H   -4.9946    0.1042    1.5085
H   -5.7324    1.0586   -1.2953
H   -6.8419    0.9601    0.0930
H   -5.9767    3.2662   -0.1929
H   -5.4195    2.5607    1.3433
H   -3.8177    2.6632   -1.2529
H   -3.5631    3.7077    0.1656
H   -3.0799    1.7087    1.5509
H   -1.9704    1.8072    0.1626
H    2.6486   -1.5852    1.8366
H    4.1145    0.3853    1.9555
H    3.5814    4.1346   -0.7877
H    5.3110    3.8291   -1.0765
H    4.0823    2.8653   -1.9306
H    2.6096    1.7053   -1.8429
H    1.1567   -0.2761   -1.9408


