%nprocshared=4
%mem=100MW
%chk=VKNITLPENCJQOP-UHFFFAOYSA-N.chk
#b3lyp/6-31+G(d) opt freq

gas opt

0 1
Cl   -0.0268   -2.7456    0.1917
C   -0.1021   -1.0123    0.1304
C    1.0632   -0.2717    0.0264
Cl    2.5992   -1.0778   -0.0425
C    1.0052    1.1103   -0.0231
Cl    2.4688    2.0348   -0.1535
C   -0.2172    1.7562    0.0307
C   -1.3862    1.0200    0.1352
O   -2.5881    1.6543    0.1885
C   -2.5712    3.0821    0.1319
C   -1.3291   -0.3695    0.1797
O   -2.4750   -1.0956    0.2818
C   -3.1067   -1.4860   -0.9391
H   -0.2602    2.8346   -0.0085
H   -2.1118    3.4032   -0.8029
H   -3.5924    3.4599    0.1835
H   -1.9966    3.4722    0.9720
H   -2.4213   -2.1010   -1.5223
H   -4.0073   -2.0578   -0.7156
H   -3.3732   -0.5971   -1.5107


