%nprocshared=4
%mem=100MW
%chk=VLKZOEOYAKHREP-UHFFFAOYSA-N.chk
#b3lyp/6-31+G(d) opt freq

gas opt

0 1
C    0.6531   -0.3983    0.0000
C   -0.6531    0.3983    0.0000
C   -1.8396   -0.5677    0.0000
C   -3.1459    0.2289   -0.0000
C    1.8396    0.5677    0.0000
C    3.1459   -0.2289   -0.0000
H    0.6958   -1.0262    0.8900
H    0.6958   -1.0262   -0.8900
H   -0.6958    1.0262    0.8900
H   -0.6958    1.0262   -0.8900
H   -1.7969   -1.1956   -0.8900
H   -1.7969   -1.1956    0.8900
H   -3.9911   -0.4593    0.0000
H   -3.1885    0.8568    0.8900
H   -3.1885    0.8568   -0.8900
H    1.7969    1.1956   -0.8900
H    1.7969    1.1956    0.8900
H    3.9911    0.4593    0.0000
H    3.1885   -0.8568    0.8900
H    3.1885   -0.8568   -0.8900


