%nprocshared=4
%mem=100MW
%chk=VOEYXMAFNDNNED-UHFFFAOYSA-N.chk
#b3lyp/6-31+G(d) opt freq

gas opt

0 1
O   -1.6715   -0.3204    1.0580
C   -1.9122    0.0555   -0.0723
O   -0.9247    0.1171   -0.9860
C    0.3345   -0.1563   -0.5532
C    1.2325    0.8776   -0.3305
C    2.5116    0.5972    0.1092
C    3.4873    1.7197    0.3519
C    2.8973   -0.7127    0.3274
C    2.0045   -1.7447    0.1057
C    0.7221   -1.4690   -0.3282
N   -3.1684    0.4055   -0.4129
C   -4.2436    0.3327    0.5794
H    0.9318    1.9007   -0.5011
H    3.4024    2.0580    1.3846
H    4.5016    1.3657    0.1677
H    3.2635    2.5474   -0.3211
H    3.8978   -0.9300    0.6712
H    2.3083   -2.7669    0.2765
H    0.0248   -2.2755   -0.5009
H   -3.3605    0.7055   -1.3151
H   -4.3429   -0.6936    0.9330
H   -4.0072    0.9853    1.4199
H   -5.1808    0.6523    0.1237


