%nprocshared=4
%mem=100MW
%chk=VWPOSFSPZNDTMJ-UCWKZMIHSA-N.chk
#b3lyp/6-31+G(d) opt freq

gas opt

0 1
O    0.1755    0.0376   -0.0891
C   -1.1120    0.6511   -0.0002
C   -2.1946   -0.4299   -0.0208
O   -2.0804   -1.2407    1.1503
C   -3.5743    0.2306   -0.0514
N   -4.6137   -0.8074   -0.0712
C   -5.9549   -0.2088   -0.1008
C   -6.1003    0.6551   -1.3552
C   -7.0082   -1.3183   -0.1208
C   -6.1531    0.6602    1.1427
C    1.2544    0.8640   -0.0835
C    2.5382    0.3274   -0.1677
C    3.6280    1.1669   -0.1679
C    3.4395    2.5405   -0.0754
C    2.1694    3.0721    0.0112
C    1.0712    2.2336    0.0001
C    5.0423    0.6589   -0.2730
C    5.1060   -0.8275    0.0723
H    6.0969   -1.2166   -0.1618
O    4.8335   -1.0106    1.4631
C    4.0516   -1.5636   -0.7626
H    4.1478   -1.2779   -1.8100
O    4.2325   -2.9750   -0.6303
C    2.6685   -1.1711   -0.2474
H   -1.1814    1.2171    0.9288
H   -1.2535    1.3232   -0.8465
H   -2.0699   -1.0521   -0.9071
H   -2.1812   -0.7519    1.9785
H   -3.6990    0.8527    0.8349
H   -3.6614    0.8490   -0.9447
H   -4.4814   -1.4368   -0.8486
H   -5.9591    0.0359   -2.2411
H   -7.0955    1.0992   -1.3772
H   -5.3499    1.4455   -1.3410
H   -6.9046   -1.9338    0.7729
H   -8.0034   -0.8742   -0.1428
H   -6.8670   -1.9375   -1.0067
H   -5.4027    1.4507    1.1570
H   -7.1483    1.1044    1.1208
H   -6.0495    0.0448    2.0364
H    4.2959    3.1985   -0.0707
H    2.0337    4.1411    0.0832
H    0.0745    2.6445    0.0648
H    5.4028    0.8072   -1.2909
H    5.6764    1.2157    0.4170
H    5.4548   -0.5567    2.0488
H    3.5971   -3.5018   -1.1340
H    2.5200   -1.5979    0.7445
H    1.9086   -1.5625   -0.9238


