%nprocshared=4
%mem=100MW
%chk=VXIVSQZSERGHQP-UHFFFAOYSA-N.chk
#b3lyp/6-31+G(d) opt freq

gas opt

0 1
Cl   -1.6996    0.0319    0.0000
C   -0.1617   -0.9091   -0.0000
C    1.0084    0.0406    0.0000
O    0.8173    1.2383    0.0000
N    2.2672   -0.4409   -0.0000
H   -0.1199   -1.5370    0.8900
H   -0.1199   -1.5370   -0.8900
H    2.4201   -1.3988   -0.0000
H    3.0203    0.1704    0.0000


