%nprocshared=4
%mem=100MW
%chk=VYWYYJYRVSBHJQ-UHFFFAOYSA-N.chk
#b3lyp/6-31+G(d) opt freq

gas opt

0 1
O   -0.7086    3.5472   -0.0014
N    0.2815    2.8378   -0.0009
O    1.3909    3.3406    0.0042
C    0.1365    1.3647   -0.0002
C   -1.1245    0.7952   -0.0002
C   -1.2691   -0.5809    0.0004
N   -2.6221   -1.1812    0.0003
O   -3.6066   -0.4640   -0.0002
O   -2.7510   -2.3923    0.0009
C   -0.1553   -1.3946    0.0005
C    1.1203   -0.8266    0.0005
C    2.3177   -1.6917    0.0002
O    2.1940   -2.9001   -0.0000
O    3.5469   -1.1405    0.0003
C    1.2589    0.5628   -0.0053
H   -2.0000    1.4277   -0.0003
H   -0.2695   -2.4685    0.0010
H    4.3000   -1.7471    0.0001
H    2.2426    1.0086   -0.0053


