%nprocshared=4
%mem=100MW
%chk=WDCYWAQPCXBPJA-UHFFFAOYSA-N.chk
#b3lyp/6-31+G(d) opt freq

gas opt

0 1
O    2.4790   -1.7647    0.0018
N    2.4790   -0.5467    0.0008
O    3.5338    0.0623   -0.0046
C    1.1972    0.1934    0.0001
C    0.0000   -0.4978    0.0005
C   -1.1971    0.1934   -0.0003
N   -2.4790   -0.5467   -0.0004
O   -2.4790   -1.7647    0.0002
O   -3.5338    0.0623   -0.0011
C   -1.1972    1.5758   -0.0005
C   -0.0000    2.2669   -0.0004
C    1.1971    1.5758    0.0047
H    0.0000   -1.5778    0.0010
H   -2.1325    2.1158   -0.0011
H   -0.0000    3.3469   -0.0010
H    2.1325    2.1158    0.0047


