%nprocshared=4
%mem=100MW
%chk=WDECIBYCCFPHNR-UHFFFAOYSA-N.chk
#b3lyp/6-31+G(d) opt freq

gas opt

0 1
C   -0.4146    0.5679   -0.0011
C    0.4148   -0.5697   -0.0005
C    1.8659   -0.3759   -0.0004
C    2.3771    0.9430   -0.0009
C    1.4893    2.0399   -0.0013
C    0.1492    1.8557   -0.0014
C    3.7670    1.1379   -0.0007
C    4.6008    0.0597    0.0000
C    4.0943   -1.2359    0.0005
C    2.7481   -1.4600    0.0008
C   -0.1499   -1.8570    0.0004
C   -1.4903   -2.0406    0.0004
C   -2.3778   -0.9435   -0.0004
C   -1.8658    0.3749    0.0047
C   -2.7466    1.4602    0.0048
C   -4.0930    1.2375   -0.0000
C   -4.6005   -0.0577   -0.0046
C   -3.7679   -1.1369   -0.0002
H    1.8868    3.0441   -0.0014
H   -0.5022    2.7171   -0.0019
H    4.1742    2.1382   -0.0015
H    5.6698    0.2134   -0.0002
H    4.7747   -2.0746    0.0011
H    2.3662   -2.4703    0.0015
H    0.5009   -2.7189    0.0006
H   -1.8881   -3.0446    0.0007
H   -2.3636    2.4700    0.0090
H   -4.7726    2.0769    0.0000
H   -5.6697   -0.2103   -0.0076
H   -4.1763   -2.1367   -0.0038


