%nprocshared=4
%mem=100MW
%chk=WDQPAMHFFCXSNU-BGABXYSRSA-N.chk
#b3lyp/6-31+G(d) opt freq

gas opt

0 1
Cl   -8.4056   -0.0918    0.6012
C   -6.6825    0.1120    0.5458
C   -5.9820    0.3881    1.7068
C   -4.6112    0.5511    1.6656
C   -3.9356    0.4374    0.4573
N   -2.5486    0.6014    0.4127
C   -1.8374    0.4811   -0.8624
C   -0.5457    1.2657   -0.7993
N   -0.4323    2.4162   -1.3889
C    0.8293    3.1570   -1.3132
C    1.3802    3.3717   -2.7244
C    0.5851    4.5136   -0.6492
C    0.5784    0.6844   -0.0481
C    0.6909   -0.6586   -0.0167
N    1.7214   -1.2773    0.6845
C    2.8130   -0.4056    0.7393
C    3.3739    0.0736   -0.4298
C    4.4531    0.9354   -0.3763
C    4.9718    1.3188    0.8477
Cl    6.3270    2.4016    0.9158
C    4.4097    0.8392    2.0174
C    3.3275   -0.0187    1.9627
C    2.0904   -2.3449    0.1748
C    1.2434   -3.1775   -0.5715
N   -0.0016   -2.7858   -0.9119
C   -0.3138   -1.4930   -0.7063
C   -1.5087   -0.9693   -1.1246
C    1.7013   -4.4363   -1.0074
C    3.0084   -4.8024   -0.7845
C    3.8636   -3.9415   -0.1136
C    3.4065   -2.7263    0.3651
C   -4.6412    0.1598   -0.7064
C   -6.0113   -0.0075   -0.6585
H   -6.5078    0.4764    2.6460
H   -4.0651    0.7673    2.5719
H   -2.0567    0.7949    1.2260
H    1.5495    2.5888   -0.7246
H    0.6600    3.9399   -3.3130
H    2.3189    3.9228   -2.6680
H    1.5542    2.4052   -3.1974
H    0.1926    4.3607    0.3561
H    1.5238    5.0648   -0.5929
H   -0.1351    5.0818   -1.2379
H    1.2918    1.3146    0.4622
H    2.9689   -0.2258   -1.3852
H    4.8917    1.3091   -1.2897
H    4.8142    1.1382    2.9732
H    2.8887   -0.3931    2.8757
H   -2.2186   -1.5963   -1.6435
H    1.0283   -5.1118   -1.5145
H    3.3682   -5.7598   -1.1315
H    4.8955   -4.2220    0.0370
H    4.0833   -2.0697    0.8916
H   -4.1185    0.0711   -1.6473
H   -6.5604   -0.2237   -1.5630
H   -2.4618    0.8686   -1.6675
H    1.4075   -1.4613    1.6256


