%nprocshared=4
%mem=100MW
%chk=WEEGYLXZBRQIMU-UHFFFAOYSA-N.chk
#b3lyp/6-31+G(d) opt freq

gas opt

0 1
C    2.0152    0.7188   -1.2469
C    1.1949    0.3859    0.0010
C    2.0147    0.7079    1.2521
O   -0.0054    1.1617    0.0041
C   -1.2054    0.3852    0.0001
C   -2.4184    1.3176    0.0006
C   -1.2405   -0.5019    1.2480
C   -0.0066   -1.4104    1.2501
C    0.8350   -1.1041   -0.0056
C   -0.0020   -1.4121   -1.2527
C   -1.2364   -0.4953   -1.2526
H    2.9297    0.1257   -1.2495
H    1.4307    0.4891   -2.1378
H    2.2695    1.7787   -1.2425
H    2.2690    1.7678    1.2569
H    1.4298    0.4705    2.1407
H    2.9292    0.1148    1.2499
H   -2.3919    1.9488   -0.8877
H   -3.3328    0.7242   -0.0025
H   -2.3948    1.9441    0.8923
H   -1.2342    0.1238    2.1405
H   -2.1431   -1.1129    1.2358
H    0.5848   -1.2213    2.1460
H   -0.3211   -2.4538    1.2309
H    1.7438   -1.7058    0.0003
H    0.5918   -1.2233   -2.1471
H   -0.3157   -2.4558   -1.2336
H   -2.1416   -1.1024   -1.2407
H   -1.2266    0.1295   -2.1457


