%nprocshared=4
%mem=100MW
%chk=WEHWNAOGRSTTBQ-UHFFFAOYSA-N.chk
#b3lyp/6-31+G(d) opt freq

gas opt

0 1
N    0.0000   -0.4544   -0.0272
C   -1.2106    0.3769    0.0083
C   -2.4480   -0.5222   -0.0301
C   -3.7089    0.3436    0.0069
C    1.2106    0.3769    0.0083
C    2.4480   -0.5222   -0.0301
C    3.7089    0.3436    0.0069
H   -0.0000   -1.1255    0.7263
H   -1.2190    0.9677    0.9243
H   -1.2190    1.0435   -0.8541
H   -2.4396   -1.1130   -0.9460
H   -2.4396   -1.1888    0.8323
H   -3.7173    1.0102   -0.8555
H   -4.5904   -0.2969   -0.0204
H   -3.7173    0.9344    0.9228
H    1.2190    1.0435   -0.8541
H    1.2190    0.9677    0.9243
H    2.4396   -1.1888    0.8323
H    2.4396   -1.1130   -0.9460
H    3.7173    1.0102   -0.8555
H    3.7173    0.9344    0.9228
H    4.5904   -0.2969   -0.0204


