%nprocshared=4
%mem=100MW
%chk=WEVYAHXRMPXWCK-UHFFFAOYSA-N.chk
#b3lyp/6-31+G(d) opt freq

gas opt

0 1
N   -1.3141    0.0000    0.0000
C   -0.1781    0.0000   -0.0000
C    1.2939   -0.0000   -0.0000
H    1.6572    0.0000    1.0277
H    1.6572   -0.8900   -0.5138
H    1.6572    0.8900   -0.5138


