%nprocshared=4
%mem=100MW
%chk=WFJNHVWTKZUUTR-UHFFFAOYSA-N.chk
#b3lyp/6-31+G(d) opt freq

gas opt

0 1
O    0.4569   -1.6456   -2.0124
C    0.1869   -0.7829   -0.9056
C   -1.2470   -0.9529   -0.4744
C   -2.0368    0.1614   -0.1332
C   -3.3803   -0.0454    0.2663
N   -3.8767   -1.2857    0.3141
C   -3.1441   -2.3256   -0.0025
C   -1.8182   -2.1918   -0.4092
C   -4.1706    1.0663    0.6075
C   -3.6375    2.3170    0.5497
C   -2.3158    2.5179    0.1564
C   -1.5198    1.4661   -0.1809
C    1.1149   -1.1396    0.2573
N    2.4885   -1.2924   -0.2409
C    2.9498   -0.0641   -0.9025
C    2.9622    1.0840    0.1106
C    2.0209    2.1941   -0.3612
C    2.5727    2.8199   -1.6437
C    2.4885    0.5513    1.4688
C    1.0755   -0.0221    1.3037
C    3.4278   -0.5802    1.9052
C    3.4025   -1.6817    0.8418
H    0.4037   -2.5873   -1.7992
H    0.3570    0.2522   -1.2019
H   -3.5813   -3.3118    0.0487
H   -1.2399   -3.0677   -0.6637
H   -5.1969    0.9281    0.9140
H   -4.2488    3.1677    0.8124
H   -1.9176    3.5211    0.1188
H   -0.4969    1.6344   -0.4838
H    0.7865   -2.0747    0.7109
H    3.9566   -0.2167   -1.2915
H    2.2759    0.1821   -1.7231
H    3.9741    1.4782    0.2035
H    1.0340    1.7749   -0.5570
H    1.9441    2.9584    0.4121
H    1.9022    3.6107   -1.9798
H    3.5597    3.2392   -1.4479
H    2.6496    2.0556   -2.4170
H    2.4832    1.3548    2.2054
H    0.3983    0.7650    0.9721
H    0.7314   -0.4255    2.2560
H    4.4420   -0.1940    2.0070
H    3.0920   -0.9860    2.8594
H    3.0582   -2.6132    1.2911
H    4.4056   -1.8209    0.4385


