%nprocshared=4
%mem=100MW
%chk=WFRBDWRZVBPBDO-UHFFFAOYSA-N.chk
#b3lyp/6-31+G(d) opt freq

gas opt

0 1
O    1.0340    0.0023    1.3965
C    0.8905    0.0151   -0.0253
C   -0.4907    0.5606   -0.3936
C   -1.5716   -0.3314    0.2201
C   -2.9528    0.2141   -0.1482
C    1.9715    0.9072   -0.6389
C    1.0371   -1.4088   -0.5655
H    0.9523    0.8736    1.8079
H   -0.5951    1.5751   -0.0087
H   -0.6001    0.5704   -1.4780
H   -1.4672   -1.3459   -0.1648
H   -1.4622   -0.3412    1.3045
H   -3.0622    0.2238   -1.2327
H   -3.7229   -0.4214    0.2890
H   -3.0572    1.2285    0.2366
H    2.9554    0.5185   -0.3765
H    1.8620    0.9169   -1.7234
H    1.8670    1.9216   -0.2541
H    0.2670   -2.0444   -0.1283
H    0.9276   -1.3991   -1.6499
H    2.0210   -1.7975   -0.3031


