%nprocshared=4
%mem=100MW
%chk=WHTBVLXUSXVMEV-UHFFFAOYSA-N.chk
#b3lyp/6-31+G(d) opt freq

gas opt

0 1
S   -3.7432   -0.1364    0.4377
O   -5.0550   -0.3870   -0.0478
O   -3.4272   -0.3012    1.8133
N   -2.8007   -1.2574   -0.3350
C   -1.4165   -1.2542   -0.1479
C   -0.5708   -1.5777   -1.2016
C   -1.1456   -1.9328   -2.5486
C    0.7972   -1.5731   -1.0133
C    1.3256   -1.2474    0.2226
S    3.0717   -1.2427    0.4585
O    3.2891   -1.4281    1.8505
O    3.6130   -2.1036   -0.5341
C    3.6453    0.3791    0.0770
C    3.7151    1.3388    1.0694
C    4.1650    2.6111    0.7701
C    4.5455    2.9236   -0.5215
C    4.4765    1.9637   -1.5138
C    4.0307    0.6901   -1.2136
C    0.4868   -0.9249    1.2734
C   -0.8823   -0.9220    1.0904
C   -3.1348    1.4615   -0.1682
F   -3.2853    1.5213   -1.5578
F   -3.8676    2.4950    0.4251
F   -1.7821    1.6006    0.1608
H   -3.2098   -1.9163   -0.9176
H   -1.2493   -1.0290   -3.1491
H   -0.4796   -2.6312   -3.0553
H   -2.1238   -2.3950   -2.4158
H    1.4552   -1.8245   -1.8320
H    3.4178    1.0946    2.0786
H    4.2189    3.3611    1.5454
H    4.8963    3.9179   -0.7555
H    4.7735    2.2079   -2.5231
H    3.9768   -0.0599   -1.9888
H    0.9027   -0.6710    2.2372
H   -1.5370   -0.6697    1.9115


