%nprocshared=4
%mem=100MW
%chk=WIIZWVCIJKGZOK-RKDXNWHRSA-N.chk
#b3lyp/6-31+G(d) opt freq

gas opt

0 1
Cl    0.8557    2.2744   -1.0518
C    2.4454    1.6739   -0.4493
Cl    3.2185    2.9419    0.5732
C    2.2335    0.4275    0.3709
O    2.6548    0.3700    1.5067
N    1.5759   -0.6234   -0.1579
C    1.3699   -1.8351    0.6393
H    1.2151   -1.5614    1.6830
C    0.1406   -2.5839    0.1208
H   -0.0651   -3.4366    0.7678
O    0.3890   -3.0441   -1.2091
C   -1.0479   -1.6573    0.1179
C   -1.9176   -1.6453    1.1923
C   -3.0077   -0.7953    1.1896
C   -3.2279    0.0429    0.1127
N   -4.3955    0.9527    0.1096
O   -5.1623    0.9627    1.0559
O   -4.5895    1.6913   -0.8393
C   -2.3575    0.0319   -0.9611
C   -1.2651   -0.8153   -0.9567
C    2.6014   -2.7359    0.5256
O    2.7371   -3.1891   -0.8228
H    3.0924    1.4459   -1.2963
H    1.2390   -0.5775   -1.0664
H    0.5800   -2.3372   -1.8407
H   -1.7455   -2.3002    2.0336
H   -3.6876   -0.7865    2.0287
H   -2.5293    0.6870   -1.8023
H   -0.5851   -0.8239   -1.7956
H    3.4904   -2.1737    0.8112
H    2.4861   -3.5942    1.1875
H    3.4989   -3.7665   -0.9689


