%nprocshared=4
%mem=100MW
%chk=WIKYUJGCLQQFNW-UHFFFAOYSA-N.chk
#b3lyp/6-31+G(d) opt freq

gas opt

0 1
Cl   -1.3149   -4.5163   -0.2454
C   -2.1188   -2.9781   -0.2053
C   -1.4215   -1.8446    0.1715
C   -2.0566   -0.6078    0.2057
N   -1.3240    0.5109    0.5953
C   -0.1463    0.2951    1.4396
C    1.0853    0.0924    0.5548
C    2.3152   -0.1329    1.4365
N    3.4978   -0.3275    0.5869
C    4.7300   -0.3104    1.3875
C    5.9289   -0.5949    0.4798
N    5.9831    0.4147   -0.5867
C    7.1657    0.2201   -1.4362
C    4.7509    0.3976   -1.3873
C    3.5519    0.6821   -0.4795
C   -1.6340    1.8206    0.2369
C   -2.9269    2.2013   -0.1104
S   -4.2387    1.0273   -0.1174
C   -3.4007   -0.5209   -0.1444
C   -4.0947   -1.6630   -0.5203
C   -3.4533   -2.8878   -0.5555
C   -3.1917    3.5193   -0.4572
C   -2.1747    4.4563   -0.4603
C   -0.8899    4.0808   -0.1179
C   -0.6184    2.7707    0.2292
H   -0.3784   -1.9205    0.4409
H    0.0055    1.1638    2.0802
H   -0.2994   -0.5897    2.0574
H    0.9335   -0.7762   -0.0859
H    1.2384    0.9773   -0.0631
H    2.4671    0.7357    2.0771
H    2.1621   -1.0178    2.0543
H    4.8490    0.6690    1.8509
H    4.6709   -1.0748    2.1623
H    6.8468   -0.5540    1.0662
H    5.8233   -1.5856    0.0377
H    7.1262   -0.7688   -1.8929
H    7.1812    0.9805   -2.2170
H    8.0670    0.3043   -0.8291
H    4.8100    1.1620   -2.1620
H    4.6319   -0.5818   -1.8506
H    2.6341    0.6413   -1.0660
H    3.6576    1.6728   -0.0374
H   -5.1382   -1.5940   -0.7903
H   -3.9964   -3.7741   -0.8487
H   -4.1955    3.8137   -0.7258
H   -2.3845    5.4807   -0.7305
H   -0.0957    4.8126   -0.1220
H    0.3879    2.4832    0.4958


