%nprocshared=4
%mem=100MW
%chk=WJTCGQSWYFHTAC-UHFFFAOYSA-N.chk
#b3lyp/6-31+G(d) opt freq

gas opt

0 1
C   -0.0128    1.4632   -0.6998
C   -1.0854    1.2485    0.3697
C   -1.9010   -0.0009    0.0307
C   -1.0842   -1.2494    0.3698
C   -0.0114   -1.4632   -0.6998
C    1.3729   -1.2487   -0.0847
C    1.3501    0.0006    0.7986
C    1.3717    1.2499   -0.0846
H   -0.1626    0.7524   -1.5124
H   -0.0851    2.4792   -1.0880
H   -0.6088    1.1187    1.3414
H   -1.7453    2.1155    0.4016
H   -2.8235   -0.0013    0.6113
H   -2.1406   -0.0010   -1.0326
H   -0.6076   -1.1191    1.3414
H   -1.7432   -2.1171    0.4019
H   -0.0829   -2.4792   -1.0880
H   -0.1619   -0.7525   -1.5124
H    1.6406   -2.1158    0.5191
H    2.1074   -1.1185   -0.8794
H    0.4447    0.0001    1.4054
H    2.2241    0.0010    1.4500
H    2.1064    1.1204   -0.8793
H    1.6385    2.1172    0.5193


