%nprocshared=4
%mem=100MW
%chk=WKEDVNSFRWHDNR-UHFFFAOYSA-N.chk
#b3lyp/6-31+G(d) opt freq

gas opt

0 1
O    0.0969   -1.3606    0.1143
C   -0.2457   -0.2033   -0.0335
N    0.6836    0.7585   -0.2004
C    2.0425    0.4416   -0.1069
C    2.5032   -0.7879   -0.5599
C    3.8459   -1.0975   -0.4666
C    4.7312   -0.1851    0.0775
C    4.2757    1.0397    0.5298
C    2.9352    1.3580    0.4338
C   -1.6785    0.1471   -0.0362
C   -2.6487   -0.8509    0.1312
O   -2.2743   -2.1442    0.2972
C   -3.9928   -0.5101    0.1269
C   -4.3725    0.8070   -0.0417
C   -3.4170    1.7959   -0.2079
C   -2.0764    1.4760   -0.2000
H    0.4098    1.6705   -0.3853
H    1.8122   -1.5011   -0.9843
H    4.2048   -2.0533   -0.8186
H    5.7807   -0.4298    0.1496
H    4.9696    1.7498    0.9549
H    2.5802    2.3149    0.7869
H   -2.1383   -2.3990    1.2201
H   -4.7437   -1.2756    0.2552
H   -5.4206    1.0673   -0.0443
H   -3.7238    2.8230   -0.3398
H   -1.3349    2.2504   -0.3297


