%nprocshared=4
%mem=100MW
%chk=WPTCSQBWLUUYDV-UHFFFAOYSA-N.chk
#b3lyp/6-31+G(d) opt freq

gas opt

0 1
C    0.7194   -0.1804   -0.0007
C   -0.7194    0.1804   -0.0007
N   -1.6244   -0.7793   -0.0007
C   -2.9296   -0.5007   -0.0003
C   -3.3654    0.8488    0.0002
C   -2.4060    1.8799    0.0006
C   -1.0865    1.5345    0.0051
C   -4.7402    1.1332   -0.0003
C   -5.6395    0.1109   -0.0012
C   -5.2140   -1.2163   -0.0017
C   -3.8899   -1.5291   -0.0008
N    1.6244    0.7793   -0.0007
C    2.9296    0.5007   -0.0003
C    3.3654   -0.8488    0.0002
C    2.4060   -1.8799    0.0006
C    1.0865   -1.5345    0.0051
C    4.7402   -1.1332   -0.0003
C    5.6395   -0.1109   -0.0012
C    5.2140    1.2163   -0.0017
C    3.8899    1.5291   -0.0008
H   -2.7072    2.9170    0.0007
H   -0.3261    2.3016    0.0055
H   -5.0827    2.1575    0.0004
H   -6.6968    0.3313   -0.0012
H   -5.9472   -2.0093   -0.0021
H   -3.5771   -2.5628   -0.0016
H    2.7072   -2.9170    0.0007
H    0.3261   -2.3016    0.0055
H    5.0827   -2.1575    0.0004
H    6.6968   -0.3313   -0.0012
H    5.9472    2.0093   -0.0021
H    3.5771    2.5628   -0.0016


