%nprocshared=4
%mem=100MW
%chk=WQOXQRCZOLPYPM-UHFFFAOYSA-N.chk
#b3lyp/6-31+G(d) opt freq

gas opt

0 1
S    0.9227   -0.4328   -0.4464
S   -0.9227   -0.4328    0.4464
C   -1.8101    0.8704   -0.4508
C    1.8101    0.8704    0.4508
H   -1.2854    1.8179   -0.3282
H   -1.8569    0.6153   -1.5096
H   -2.8212    0.9609   -0.0539
H    1.2854    1.8179    0.3282
H    1.8569    0.6153    1.5096
H    2.8212    0.9609    0.0539


