%nprocshared=4
%mem=100MW
%chk=WQZGKKKJIJFFOK-UHFFFAOYSA-N.chk
#b3lyp/6-31+G(d) opt freq

gas opt

0 1
O    3.5405   -0.0725    0.1425
C    2.4664    0.8093   -0.1900
C    1.1799    0.3210    0.4789
C    0.0578    1.3313    0.2262
O   -0.1215    1.5037   -1.1810
C   -1.2404    0.8066    0.8472
O   -2.3095    1.7080    0.5530
C   -1.5552   -0.5715    0.2572
O   -1.7773   -0.4495   -1.1492
C   -0.3708   -1.5083    0.5087
O   -0.6338   -2.7799   -0.0879
O    0.8100   -0.9465   -0.0677
H    4.3892    0.1766   -0.2483
H    2.6995    1.8145    0.1611
H    2.3304    0.8246   -1.2714
H    1.3437    0.2205    1.5519
H    0.3193    2.2872    0.6799
H   -0.8186    2.1319   -1.4146
H   -1.1204    0.7235    1.9274
H   -3.1636    1.4373    0.9166
H   -2.4484   -0.9762    0.7332
H   -1.9823   -1.2859   -1.5890
H   -0.2276   -1.6331    1.5820
H    0.0763   -3.4252    0.0323


