%nprocshared=4
%mem=100MW
%chk=WRKNTBMMMVTKKA-UHFFFAOYSA-N.chk
#b3lyp/6-31+G(d) opt freq

gas opt

0 1
O    1.6425   -1.3636    0.5485
C    1.8917   -0.1809    0.4482
N    3.1673    0.2477    0.5231
C    4.2528   -0.7151    0.7257
C    4.7648   -1.1996   -0.6323
O    5.3562   -0.1057   -1.3363
C    3.4684    1.6763    0.4020
C    0.7757    0.8088    0.2336
O   -0.4929    0.1043    0.1829
C   -1.5993    0.8495   -0.0050
O   -1.5068    2.0549   -0.1231
C   -2.9250    0.2008   -0.0673
C   -4.0738    0.9702   -0.2618
C   -5.3086    0.3580   -0.3195
C   -5.4103   -1.0153   -0.1846
C   -4.2760   -1.7838    0.0089
C   -3.0344   -1.1851    0.0624
H    5.0662   -0.2362    1.2708
H    3.8824   -1.5651    1.2987
H    5.5103   -1.9805   -0.4819
H    3.9330   -1.5983   -1.2130
H    5.7032   -0.3404   -2.2078
H    3.4476    2.1370    1.3896
H    4.4579    1.8031   -0.0372
H    2.7238    2.1517   -0.2365
H    0.7614    1.5242    1.0559
H    0.9352    1.3382   -0.7058
H   -3.9958    2.0423   -0.3666
H   -6.1979    0.9519   -0.4699
H   -6.3795   -1.4896   -0.2301
H   -4.3626   -2.8552    0.1142
H   -2.1498   -1.7861    0.2135


