%nprocshared=4
%mem=100MW
%chk=WTDRDQBEARUVNC-LURJTMIESA-N.chk
#b3lyp/6-31+G(d) opt freq

gas opt

0 1
O    4.0919   -0.9842    0.0788
C    3.4790    0.0427   -0.0933
O    4.1075    1.2245    0.0079
C    2.0103   -0.0033   -0.4277
H    1.7852    0.7520   -1.1806
N    1.6687   -1.3329   -0.9507
C    1.1909    0.2743    0.8342
C   -0.2712    0.3499    0.4772
C   -1.0478   -0.7939    0.5035
C   -2.3921   -0.7261    0.1761
O   -3.1574   -1.8500    0.2019
C   -2.9580    0.4951   -0.1789
O   -4.2774    0.5669   -0.5007
C   -2.1745    1.6372   -0.2032
C   -0.8343    1.5634    0.1298
H    5.0506    1.2033    0.2203
H    1.8683   -2.0512   -0.2707
H    0.7035   -1.3696   -1.2426
H    1.3482   -0.5292    1.5536
H    1.5075    1.2211    1.2719
H   -0.6062   -1.7402    0.7789
H   -3.5771   -2.0205    1.0562
H   -4.8571    0.7420    0.2532
H   -2.6110    2.5858   -0.4786
H   -0.2246    2.4546    0.1108


