%nprocshared=4
%mem=100MW
%chk=WVDDGKGOMKODPV-UHFFFAOYSA-N.chk
#b3lyp/6-31+G(d) opt freq

gas opt

0 1
O    2.6368   -0.0009   -0.6732
C    1.9216    0.0011    0.5639
C    0.4401    0.0005    0.2877
C   -0.2392   -1.1969    0.1630
C   -1.5982   -1.1974   -0.0904
C   -2.2778   -0.0006   -0.2187
C   -1.5986    1.1969   -0.0930
C   -0.2405    1.1974    0.1647
H    3.5984   -0.0006   -0.5716
H    2.1847   -0.8879    1.1371
H    2.1845    0.8920    1.1342
H    0.2918   -2.1320    0.2632
H   -2.1288   -2.1330   -0.1886
H   -3.3394   -0.0010   -0.4174
H   -2.1296    2.1320   -0.1936
H    0.2901    2.1329    0.2628


