%nprocshared=4
%mem=100MW
%chk=WWGUMAYGTYQSGA-UHFFFAOYSA-N.chk
#b3lyp/6-31+G(d) opt freq

gas opt

0 1
C    3.0211   -1.4391    0.0015
C    1.7096   -0.6969    0.0010
C    1.7096    0.6969    0.0003
C    3.0211    1.4391   -0.0004
C    0.5429    1.3976   -0.0002
C   -0.6820    0.7086    0.0000
C   -0.6820   -0.7086    0.0007
C    0.5429   -1.3976   -0.0044
C   -1.9069   -1.3976    0.0010
C   -3.0736   -0.6969    0.0006
C   -3.0736    0.6969   -0.0001
C   -1.9069    1.3976    0.0000
H    3.3372   -1.6175    1.0293
H    2.8991   -2.3928   -0.5119
H    3.7757   -0.8437   -0.5125
H    3.3370    1.6176   -1.0282
H    2.8991    2.3929    0.5130
H    3.7758    0.8438    0.5135
H    0.5583    2.4775   -0.0004
H    0.5583   -2.4775   -0.0043
H   -1.9223   -2.4775    0.0011
H   -4.0135   -1.2288    0.0004
H   -4.0136    1.2288   -0.0005
H   -1.9223    2.4775   -0.0002


