%nprocshared=4
%mem=100MW
%chk=WWJZWCUNLNYYAU-UHFFFAOYSA-N.chk
#b3lyp/6-31+G(d) opt freq

gas opt

0 1
S    5.6068   -0.1246   -1.4505
P    5.6028   -0.8518    0.2653
O    4.7441   -2.2137    0.2689
C    3.4719   -2.3334   -0.3708
O    7.1150   -1.1697    0.7170
C    8.0645   -1.8096   -0.1380
O    4.9457    0.1997    1.2923
C    3.8029    0.7785    0.8356
C    2.5749    0.1882    1.0962
C    1.4140    0.7751    0.6331
C    1.4761    1.9574   -0.0938
S   -0.0045    2.7077   -0.6850
C   -1.2433    1.5294   -0.2592
C   -1.9524    1.6644    0.9279
C   -2.9230    0.7403    1.2606
C   -3.1902   -0.3226    0.4101
O   -4.1463   -1.2321    0.7387
P   -5.6173   -0.8591    0.2010
S   -5.5065   -0.2972   -1.5723
O   -6.5676   -2.1553    0.2949
C   -7.8233   -2.2504   -0.3807
O   -6.2337    0.3246    1.1016
C   -5.8125    1.6857    0.9922
C   -2.4830   -0.4581   -0.7757
C   -1.5157    0.4677   -1.1129
C    2.7065    2.5480   -0.3538
C    3.8657    1.9619    0.1144
H    2.7761   -1.6180    0.0676
H    3.5801   -2.1290   -1.4359
H    3.0890   -3.3444   -0.2319
H    7.6934   -2.7950   -0.4198
H    8.2108   -1.2066   -1.0342
H    9.0135   -1.9154    0.3877
H    2.5269   -0.7309    1.6613
H    0.4581    0.3150    0.8355
H   -1.7444    2.4915    1.5903
H   -3.4741    0.8449    2.1835
H   -8.4821   -1.4530   -0.0368
H   -7.6661   -2.1539   -1.4549
H   -8.2794   -3.2167   -0.1655
H   -4.7474    1.7553    1.2132
H   -5.9976    2.0430   -0.0208
H   -6.3713    2.2970    1.7009
H   -2.6918   -1.2859   -1.4371
H   -0.9652    0.3620   -2.0361
H    2.7559    3.4671   -0.9188
H    4.8223    2.4210   -0.0873


