%nprocshared=4
%mem=100MW
%chk=WXZVAROIGSFCFJ-UHFFFAOYSA-N.chk
#b3lyp/6-31+G(d) opt freq

gas opt

0 1
O    2.0224   -1.7882    0.4177
C    2.2421   -0.6166    0.1941
N    3.4847   -0.2157   -0.1398
C    4.5750   -1.1917   -0.2108
C    4.6555   -1.7642   -1.6274
C    3.7452    1.1960   -0.4319
C    4.3181    1.8770    0.8127
C    1.1242    0.3900    0.2837
O   -0.1249   -0.2944    0.4002
C   -1.2392    0.3895    0.0330
C   -2.4992   -0.2430    0.0532
C   -3.6490    0.4886   -0.3338
C   -3.5117    1.8300   -0.7307
C   -2.2800    2.4098   -0.7390
C   -1.1479    1.6969   -0.3533
C   -4.9052   -0.1414   -0.3138
C   -5.0001   -1.4420    0.0759
C   -3.8686   -2.1611    0.4565
C   -2.6360   -1.5832    0.4489
C    1.3352    1.2787    1.5112
H    5.5170   -0.7028    0.0376
H    4.3867   -1.9988    0.4971
H    3.7135   -2.2531   -1.8758
H    4.8438   -0.9571   -2.3353
H    5.4667   -2.4904   -1.6802
H    4.4618    1.2717   -1.2498
H    2.8143    1.6857   -0.7179
H    3.6764    1.6687    1.6687
H    5.3198    1.4941    1.0077
H    4.3663    2.9535    0.6481
H    1.1180    1.0070   -0.6148
H   -4.3803    2.3986   -1.0283
H   -2.1801    3.4406   -1.0452
H   -0.1827    2.1813   -0.3690
H   -5.7906    0.4038   -0.6058
H   -5.9665   -1.9238    0.0907
H   -3.9711   -3.1920    0.7616
H   -1.7678   -2.1527    0.7461
H    2.1038    2.0206    1.2948
H    0.4017    1.7841    1.7587
H    1.6504    0.6643    2.3546


