%nprocshared=4
%mem=100MW
%chk=XEFQLINVKFYRCS-UHFFFAOYSA-N.chk
#b3lyp/6-31+G(d) opt freq

gas opt

0 1
Cl   -2.5256   -2.7344   -0.2018
C   -2.2918   -1.0150   -0.1503
C   -1.0092   -0.4858   -0.2111
O    0.0645   -1.3133   -0.3108
C    1.3050   -0.7588   -0.2574
C    1.9142   -0.5300    0.9733
O    1.2700   -0.8605    2.1244
C    3.1782    0.0346    1.0229
C    3.8324    0.3699   -0.1495
Cl    5.4164    1.0775   -0.0857
C    3.2269    0.1420   -1.3720
C    1.9674   -0.4257   -1.4278
C   -0.8256    0.8883   -0.1702
C   -1.9183    1.7280   -0.0693
C   -3.1953    1.1994   -0.0085
Cl   -4.5660    2.2571    0.1189
C   -3.3821   -0.1712   -0.0547
H    1.4450   -1.7617    2.4282
H    3.6528    0.2135    1.9764
H    3.7406    0.4046   -2.2851
H    1.4969   -0.6031   -2.3836
H    0.1710    1.3018   -0.2170
H   -1.7753    2.7980   -0.0375
H   -4.3799   -0.5818   -0.0071


