%nprocshared=4
%mem=100MW
%chk=XGEGHDBEHXKFPX-UHFFFAOYSA-N.chk
#b3lyp/6-31+G(d) opt freq

gas opt

0 1
O   -0.4151   -1.2594    0.0002
C   -0.4781   -0.0451    0.0019
N    0.6525    0.6884    0.0013
C    1.9575    0.0227   -0.0014
N   -1.6787    0.5673   -0.0013
H    0.6022    1.6571    0.0026
H    2.0489   -0.6013    0.8877
H    2.0465   -0.5990   -0.8923
H    2.7482    0.7730   -0.0015
H   -2.4925    0.0394   -0.0049
H   -1.7290    1.5360    0.0000


