%nprocshared=4
%mem=100MW
%chk=XIGAUIHYSDTJHW-UHFFFAOYSA-N.chk
#b3lyp/6-31+G(d) opt freq

gas opt

0 1
O    2.0558   -1.2975    0.0333
C    1.7899   -0.1185   -0.0687
N    2.7806    0.7891   -0.1744
C    2.4604    2.1986   -0.4130
C    4.1151    0.3851   -0.0562
C    4.8733    0.7979    1.0315
C    6.1902    0.3975    1.1452
C    6.7540   -0.4133    0.1772
C    6.0016   -0.8261   -0.9071
C    4.6823   -0.4341   -1.0235
C    0.3516    0.3309   -0.0834
O   -0.5044   -0.8072    0.0351
C   -1.8376   -0.5756    0.0381
S   -3.0720   -1.8201    0.1731
C   -4.3357   -0.5954    0.0850
C   -3.7276    0.6575   -0.0394
N   -2.3813    0.5872   -0.0518
C   -4.5533    1.7978   -0.1278
C   -5.9192    1.6714   -0.0917
C   -6.5096    0.4226    0.0325
C   -5.7233   -0.7049    0.1192
H    2.3403    2.7106    0.5417
H    3.2690    2.6646   -0.9760
H    1.5335    2.2693   -0.9823
H    4.4338    1.4317    1.7875
H    6.7805    0.7182    1.9909
H    7.7842   -0.7245    0.2680
H    6.4448   -1.4592   -1.6615
H    4.0952   -0.7571   -1.8704
H    0.1738    1.0078    0.7522
H    0.1418    0.8473   -1.0202
H   -4.1075    2.7768   -0.2241
H   -6.5401    2.5524   -0.1603
H   -7.5856    0.3343    0.0604
H   -6.1845   -1.6767    0.2159


