%nprocshared=4
%mem=100MW
%chk=XJCVRTZCHMZPBD-UHFFFAOYSA-N.chk
#b3lyp/6-31+G(d) opt freq

gas opt

0 1
O    2.2513   -1.4368    0.0014
N    1.9445   -0.2581    0.0009
O    2.8118    0.5970   -0.0040
C    0.5176    0.1351    0.0002
C   -0.4654   -0.8352    0.0000
C   -1.8041   -0.4653   -0.0007
N   -2.8007   -1.4439   -0.0004
C   -2.1497    0.8803   -0.0012
C   -1.1620    1.8452   -0.0011
C    0.1702    1.4734    0.0053
H   -0.1933   -1.8804    0.0001
H   -2.5581   -2.3831    0.0004
H   -3.7353   -1.1844   -0.0008
H   -3.1898    1.1714   -0.0021
H   -1.4300    2.8914   -0.0018
H    0.9408    2.2301    0.0058


