%nprocshared=4
%mem=100MW
%chk=XJGVXQDUIWGIRW-UHFFFAOYSA-N.chk
#b3lyp/6-31+G(d) opt freq

gas opt

0 1
Cl    1.0534   -4.3723   -0.9152
C    0.1855   -3.0605   -0.1805
C    0.4832   -1.7575   -0.5287
C   -0.2199   -0.7018    0.0539
C    0.1294    0.6874   -0.2826
N   -0.7092    1.6558   -0.4229
C   -2.0662    1.5873   -0.3140
C   -2.6837    0.8153    0.6725
O   -1.9590    0.0371    1.5162
C   -1.2357   -0.9747    0.9765
C   -1.5110   -2.2851    1.3299
C   -0.8066   -3.3239    0.7482
C   -4.0643    0.8177    0.7835
C   -4.8347    1.5555   -0.0987
C   -4.2305    2.2960   -1.0969
C   -2.8545    2.3162   -1.2090
N    1.4630    0.9766   -0.4631
C    1.8899    2.2972   -0.9498
C    2.9648    2.8409   -0.0027
N    4.0414    1.8505    0.1311
C    5.1711    2.4004    0.8922
C    3.5498    0.6084    0.7423
C    2.4992   -0.0248   -0.1685
H    1.2600   -1.5555   -1.2513
H   -2.2800   -2.4965    2.0581
H   -1.0260   -4.3443    1.0258
H   -4.5420    0.2416    1.5622
H   -5.9108    1.5528   -0.0065
H   -4.8359    2.8598   -1.7912
H   -2.3860    2.8976   -1.9893
H    2.3015    2.2016   -1.9546
H    1.0369    2.9757   -0.9636
H    3.3714    3.7676   -0.4077
H    2.5241    3.0335    0.9754
H    4.8333    2.6862    1.8884
H    5.9539    1.6466    0.9764
H    5.5644    3.2766    0.3767
H    4.3807   -0.0841    0.8776
H    3.1009    0.8320    1.7100
H    2.0499   -0.8826    0.3319
H    2.9666   -0.3442   -1.1000


