%nprocshared=4
%mem=100MW
%chk=XKFPYPQQHFEXRZ-UHFFFAOYSA-N.chk
#b3lyp/6-31+G(d) opt freq

gas opt

0 1
O   -1.1204   -1.7698   -0.0115
C   -1.3631   -0.5794   -0.0007
N   -0.3540    0.3141    0.0050
N    0.9416   -0.1188   -0.0012
C    1.8755    1.0150    0.0068
C    3.2916    0.4995   -0.0004
C    3.9387    0.2734   -1.2008
C    5.2377   -0.1995   -1.2073
C    5.8896   -0.4459   -0.0135
C    5.2427   -0.2189    1.1869
C    3.9453    0.2581    1.1935
C   -2.7699   -0.1093   -0.0002
N   -3.1847    1.1331    0.0101
O   -4.3921    1.1960    0.0075
C   -4.9548   -0.0203   -0.0051
C   -6.4297   -0.3294   -0.0119
C   -3.9412   -0.9167   -0.0169
H   -0.5478    1.2645    0.0136
H    1.1193   -0.7391    0.7745
H    1.7082    1.6298   -0.8776
H    1.7116    1.6145    0.9023
H    3.4294    0.4659   -2.1335
H    5.7430   -0.3769   -2.1452
H    6.9041   -0.8161   -0.0186
H    5.7519   -0.4117    2.1196
H    3.4399    0.4354    2.1313
H   -6.9962    0.6018   -0.0044
H   -6.6776   -0.8983   -0.9080
H   -6.6821   -0.9154    0.8719
H   -4.0062   -1.9947   -0.0289


