%nprocshared=4
%mem=100MW
%chk=XKJMBINCVNINCA-UHFFFAOYSA-N.chk
#b3lyp/6-31+G(d) opt freq

gas opt

0 1
Cl    3.3611    1.8042    0.4624
C    2.1148    0.6461    0.1171
C    2.4524   -0.6526   -0.2264
Cl    4.1220   -1.1205   -0.3112
C    1.4612   -1.5775   -0.5016
C    0.1318   -1.2077   -0.4354
C   -0.2099    0.0934   -0.0918
N   -1.5566    0.4699   -0.0237
C   -2.4859   -0.4209    0.3755
O   -2.1454   -1.5199    0.7686
N   -3.7928   -0.0933    0.3389
O   -4.1894    1.1866   -0.1188
C   -4.4337    1.2509   -1.5253
C   -4.8030   -1.0615    0.7729
C    0.7860    1.0190    0.1906
H    1.7269   -2.5896   -0.7689
H   -0.6414   -1.9303   -0.6511
H   -1.8208    1.3718   -0.2638
H   -3.5248    0.9838   -2.0645
H   -5.2299    0.5544   -1.7880
H   -4.7326    2.2634   -1.7963
H   -4.9894   -0.9387    1.8398
H   -5.7278   -0.8938    0.2208
H   -4.4435   -2.0725    0.5809
H    0.5228    2.0316    0.4581


