%nprocshared=4
%mem=100MW
%chk=XLOMZPUITCYLMJ-UHFFFAOYSA-N.chk
#b3lyp/6-31+G(d) opt freq

gas opt

0 1
S   -2.4667   -2.7762   -0.1612
C   -1.4711   -1.3855   -0.0858
N   -0.9999   -0.8970   -1.2388
C   -0.2076    0.1951   -1.2816
O    0.2118    0.6267   -2.3342
C    0.1383    0.8625    0.0361
C    1.6616    0.8737    0.1786
C    2.1860   -0.5636    0.1626
C    3.6925   -0.5599    0.4296
C    4.2168   -1.9971    0.4135
C    2.2770    1.6541   -0.9846
C   -0.3415    2.3140   -0.0251
C   -1.8321    2.3415   -0.2451
C   -2.6046    2.9979    0.5846
C   -0.4478    0.2280    1.2832
O   -0.2299    0.6872    2.3839
N   -1.2254   -0.8635    1.1213
H   -1.2344   -1.3410   -2.0687
H    1.9349    1.3496    1.1204
H    1.6813   -1.1431    0.9356
H    1.9908   -1.0106   -0.8122
H    4.1971    0.0196   -0.3435
H    3.8876   -0.1128    1.4044
H    5.2901   -1.9945    0.6038
H    3.7122   -2.5766    1.1866
H    4.0217   -2.4442   -0.5612
H    3.3622    1.6621   -0.8831
H    2.0037    1.1782   -1.9264
H    1.9035    2.6780   -0.9732
H   -0.1034    2.8152    0.9131
H    0.1567    2.8270   -0.8478
H   -2.2634    1.8200   -1.0868
H   -2.1733    3.5194    1.4263
H   -3.6729    3.0176    0.4270
H   -1.6114   -1.2865    1.9043


