%nprocshared=4
%mem=100MW
%chk=XMTQQYYKAHVGBJ-UHFFFAOYSA-N.chk
#b3lyp/6-31+G(d) opt freq

gas opt

0 1
Cl    3.0837    1.8167   -0.2938
C    1.8274    0.6514   -0.0154
C    2.1439   -0.6914    0.1089
Cl    3.7969   -1.2072   -0.0142
C    1.1448   -1.6220    0.3312
C   -0.1715   -1.2143    0.4291
C   -0.4920    0.1308    0.3046
N   -1.8254    0.5459    0.4039
C   -2.8126   -0.2384   -0.0724
O   -2.5536   -1.3419   -0.5124
N   -4.0868    0.2006   -0.0610
C   -5.1598   -0.6519   -0.5787
C   -4.3988    1.5302    0.4692
C    0.5127    1.0646    0.0879
H    1.3941   -2.6683    0.4281
H   -0.9509   -1.9417    0.6020
H   -2.0387    1.3979    0.8155
H   -5.5567   -1.2672    0.2288
H   -5.9558   -0.0277   -0.9848
H   -4.7654   -1.2951   -1.3654
H   -4.3454    2.2638   -0.3352
H   -5.4037    1.5263    0.8914
H   -3.6794    1.7896    1.2458
H    0.2658    2.1115   -0.0092


