%nprocshared=4
%mem=100MW
%chk=XRTJYEIMLZALBD-UHFFFAOYSA-N.chk
#b3lyp/6-31+G(d) opt freq

gas opt

0 1
N    6.0035    0.1784    0.0006
C    4.6107    0.1294    0.0005
C    3.8746    1.3097   -0.0003
C    2.4979    1.2644   -0.0003
C    1.8412    0.0319    0.0004
C    0.3647   -0.0201   -0.0002
S   -0.5881   -1.4977    0.0005
C   -2.0759   -0.5539   -0.0002
C   -1.7375    0.8044   -0.0009
N   -0.4094    1.0129    0.0042
C   -2.7815    1.7555   -0.0016
C   -4.0912    1.3490   -0.0011
C   -4.4126   -0.0009   -0.0003
C   -5.8568   -0.4314    0.0003
C   -3.4124   -0.9470   -0.0001
C    2.5830   -1.1514    0.0011
C    3.9594   -1.0998   -0.0045
H    6.4587    1.0350    0.0001
H    6.5178   -0.6441    0.0052
H    4.3830    2.2626   -0.0004
H    1.9270    2.1812   -0.0006
H   -2.5469    2.8097   -0.0022
H   -4.8801    2.0865   -0.0009
H   -6.2052   -0.5357   -1.0272
H   -5.9506   -1.3878    0.5146
H   -6.4591    0.3180    0.5139
H   -3.6646   -1.9972    0.0009
H    2.0779   -2.1060    0.0017
H    4.5336   -2.0145   -0.0042


