%nprocshared=4
%mem=100MW
%chk=XYGUXAGVJDBSBP-UHFFFAOYSA-N.chk
#b3lyp/6-31+G(d) opt freq

gas opt

0 1
O    1.4062   -1.3986    0.0083
C    1.6579   -0.2122    0.0077
N    2.9395    0.2048    0.0037
C    4.0286   -0.7750    0.0001
C    5.3523   -0.0547   -0.0040
O    5.3829    1.1577   -0.0039
N    6.5021   -0.7579   -0.0077
C    0.5375    0.7957    0.0051
O   -0.7379    0.1017    0.0038
C   -1.8488    0.8637    0.0014
O   -1.7546    2.0748    0.0005
C   -3.1815    0.2265   -0.0001
C   -4.3350    1.0133   -0.0025
C   -5.5764    0.4118   -0.0044
C   -5.6800   -0.9680   -0.0034
C   -4.5411   -1.7537   -0.0005
C   -3.2934   -1.1653   -0.0049
H    3.1408    1.1537    0.0032
H    3.9579   -1.4001    0.8902
H    3.9522   -1.3999   -0.8897
H    6.4776   -1.7276   -0.0078
H    7.3541   -0.2943   -0.0104
H    0.6097    1.4215    0.8947
H    0.6124    1.4200   -0.8853
H   -4.2555    2.0904   -0.0026
H   -6.4694    1.0191   -0.0063
H   -6.6544   -1.4339   -0.0045
H   -4.6291   -2.8301    0.0010
H   -2.4052   -1.7797   -0.0026


