%nprocshared=4
%mem=100MW
%chk=XZTUSOXSLKTKJQ-UHFFFAOYSA-N.chk
#b3lyp/6-31+G(d) opt freq

gas opt

0 1
O   -6.5978    0.4680    1.4554
C   -5.6764    0.6006    0.6741
O   -5.4562    1.6918   -0.0829
C   -4.2589    1.4448   -0.8724
C   -3.7867    0.0611   -0.4914
C   -4.6372   -0.4011    0.4214
C   -2.5803   -0.6555   -1.0363
C   -1.2993   -0.0608   -0.4067
C   -1.6255    0.1944    1.0669
C   -0.3230   -1.2406   -0.6005
O   -0.1550   -1.4809   -2.0163
C    1.0260   -0.9844    0.0003
C    1.2454    0.5136    0.2240
C    2.7243    0.7616    0.5264
C    2.8117    1.5272    1.8520
C    3.4431   -0.5817    0.6385
C    4.9194   -0.3617    0.9677
C    5.5676    0.4630   -0.1456
O    5.5090   -0.2610   -1.3767
C    4.8518    1.8018   -0.3010
C    3.3640    1.5970   -0.5806
C    2.7791   -1.4749    1.6836
C    1.3105   -1.7260    1.3017
C    0.7320    1.3104   -0.9626
C   -0.7971    1.1914   -1.0757
C   -1.1366   -2.4085   -0.0203
C   -2.5661   -2.1314   -0.5658
H   -4.4963    1.4809   -1.9356
H   -3.4927    2.1821   -0.6330
H   -4.5754   -1.3686    0.8974
H   -2.5312   -0.5832   -2.1144
H   -1.8512   -0.7520    1.5582
H   -0.7688    0.6610    1.5532
H   -2.4888    0.8560    1.1387
H    0.4461   -2.2096   -2.2230
H    1.7721   -1.3242   -0.7439
H    0.7125    0.8264    1.1278
H    2.3587    0.9328    2.6455
H    3.8575    1.7182    2.0930
H    2.2812    2.4749    1.7599
H    3.3983   -1.0902   -0.3338
H    5.0353    0.1457    1.9200
H    5.4204   -1.3338    1.0260
H    6.6149    0.6442    0.1097
H    5.9034    0.2054   -2.1264
H    4.9887    2.3952    0.6027
H    5.2982    2.3503   -1.1376
H    3.2334    1.1007   -1.5412
H    2.8768    2.5756   -0.6181
H    3.3004   -2.4349    1.7235
H    2.8242   -1.0117    2.6668
H    0.6674   -1.3439    2.0941
H    1.1453   -2.7928    1.1725
H    0.9965    2.3660   -0.8332
H    1.1948    0.9479   -1.8825
H   -1.0797    1.1896   -2.1365
H   -1.2627    2.0689   -0.6077
H   -0.7626   -3.3575   -0.4101
H   -1.1221   -2.4132    1.0637
H   -3.3022   -2.2779    0.2242
H   -2.7799   -2.7925   -1.4038


