%nprocshared=4
%mem=100MW
%chk=YCSBALJAGZKWFF-UHFFFAOYSA-N.chk
#b3lyp/6-31+G(d) opt freq

gas opt

0 1
N    4.5288    0.8978   -0.0001
C    3.2579    0.3212    0.0007
C    2.1592    1.1304    0.0008
C    0.8722    0.5548    0.0010
C    0.7524   -0.9073    0.0012
C   -0.5053   -1.5073    0.0011
C   -1.6484   -0.7100    0.0007
C   -1.5290    0.7518    0.0004
C   -0.2717    1.3524    0.0001
C   -2.7077    1.5286   -0.0006
C   -3.9166    0.9112   -0.0012
C   -4.0302   -0.4795   -0.0005
C   -2.9375   -1.2849    0.0000
C    1.9297   -1.6869    0.0011
C    3.1399   -1.0752   -0.0046
H    4.6235    1.8632   -0.0005
H    5.3175    0.3331    0.0039
H    2.2746    2.2042    0.0011
H   -0.5937   -2.5836    0.0010
H   -0.1836    2.4288   -0.0002
H   -2.6480    2.6070   -0.0005
H   -4.8140    1.5122   -0.0020
H   -5.0132   -0.9268   -0.0003
H   -3.0538   -2.3587    0.0003
H    1.8666   -2.7651    0.0012
H    4.0352   -1.6792   -0.0050


