%nprocshared=4
%mem=100MW
%chk=YFGYUFNIOHWBOB-UHFFFAOYSA-N.chk
#b3lyp/6-31+G(d) opt freq

gas opt

0 1
O   -1.6388   -1.3937    0.0026
C   -2.1877   -0.3097    0.0032
O   -1.4509    0.8185    0.0023
C   -0.1026    0.6733    0.0007
C    0.7286    1.7920   -0.0003
C    0.1484    3.1829    0.0003
C    2.0973    1.5972   -0.0014
C    3.0348    2.7771   -0.0020
N    2.5754    0.3621   -0.0014
C    1.7606   -0.6823   -0.0004
N    2.2980   -1.9576   -0.0005
C    3.7516   -2.1399   -0.0017
C    1.4133   -3.1253    0.0005
N    0.4438   -0.5361    0.0057
N   -3.5334   -0.2356   -0.0009
C   -4.3344   -1.4622   -0.0060
C   -4.1951    1.0714   -0.0002
H    0.0097    3.5183    1.0281
H    0.8294    3.8608   -0.5143
H   -0.8134    3.1755   -0.5124
H    3.2617    3.0615    1.0255
H    3.9573    2.5079   -0.5166
H    2.5637    3.6153   -0.5154
H    4.1130   -2.1849    1.0257
H    4.0010   -3.0684   -0.5155
H    4.2225   -1.3022   -0.5162
H    0.3748   -2.7944    0.0013
H    1.6027   -3.7255   -0.8894
H    1.6042   -3.7250    0.8905
H   -4.5363   -1.7686    1.0204
H   -5.2766   -1.2787   -0.5224
H   -3.7863   -2.2520   -0.5198
H   -4.3560    1.3977   -1.0277
H   -5.1548    0.9925    0.5105
H   -3.5668    1.7965    0.5172


