%nprocshared=4
%mem=100MW
%chk=YJDYCULVYZDESB-UHFFFAOYSA-N.chk
#b3lyp/6-31+G(d) opt freq

gas opt

0 1
O   -4.5929    1.3081   -0.0187
C   -3.8109    0.4027    0.0708
C   -2.3114    0.5084    0.2993
C   -2.0767    0.1713    1.7733
C   -1.8071   -0.6015   -0.6431
C   -0.3260   -0.7984   -0.5892
C    0.3660    0.4470   -0.0299
C    1.8688    0.3597   -0.2937
C    2.1532    0.3237   -1.7908
C    2.3884   -0.9007    0.4046
C    1.6642   -2.1580   -0.0584
C    0.1522   -2.0213    0.1839
C    3.8956   -1.0360    0.2029
C    4.5933    0.1766    0.8238
C    4.0803    1.4633    0.1810
C    2.5651    1.5764    0.3265
C   -0.2875    1.6964   -0.5972
C   -1.7152    1.8493   -0.0441
C   -2.7006   -1.7824   -0.2363
C   -4.0773   -1.0959   -0.0221
H   -2.3216   -0.8760    1.9500
H   -1.0307    0.3471    2.0242
H   -2.7107    0.8027    2.3958
H   -2.0808   -0.3250   -1.6858
H    0.0044   -0.9416   -1.6383
H    0.2609    0.4586    1.0618
H    1.7665    1.2304   -2.2560
H    3.2290    0.2615   -1.9549
H    1.6675   -0.5466   -2.2321
H    2.2033   -0.7821    1.4857
H    1.8444   -2.3341   -1.1166
H    2.0318   -3.0173    0.5091
H   -0.0323   -1.8940    1.2476
H   -0.3521   -2.9142   -0.1807
H    4.2438   -1.9414    0.7112
H    4.1458   -1.1117   -0.8499
H    4.3918    0.1984    1.8957
H    5.6695    0.0933    0.6640
H    4.5476    2.3180    0.6867
H    4.3692    1.4944   -0.8676
H    2.2210    2.4817   -0.1769
H    2.3039    1.6360    1.3848
H    0.2984    2.5783   -0.3249
H   -0.3328    1.6317   -1.6877
H   -2.3412    2.3478   -0.7960
H   -1.6932    2.4850    0.8493
H   -2.7656   -2.5083   -1.0508
H   -2.3492   -2.2631    0.6711
H   -4.5307   -1.4492    0.9031
H   -4.7333   -1.3111   -0.8655


