%nprocshared=4
%mem=100MW
%chk=YLQBMQCUIZJEEH-UHFFFAOYSA-N.chk
#b3lyp/6-31+G(d) opt freq

gas opt

0 1
O   -0.0000   -1.1008   -0.0000
C   -1.0966   -0.3255    0.0000
C   -0.7069    0.9620    0.0001
C    0.7069    0.9620    0.0000
C    1.0966   -0.3255   -0.0000
H   -2.1181   -0.6762   -0.0003
H   -1.3505    1.8292   -0.0004
H    1.3505    1.8292   -0.0003
H    2.1181   -0.6762   -0.0000


