%nprocshared=4
%mem=100MW
%chk=YMWUJEATGCHHMB-UHFFFAOYSA-N.chk
#b3lyp/6-31+G(d) opt freq

gas opt

0 1
Cl   -1.4721    0.1869    0.0000
C    0.0000   -0.8541   -0.0000
Cl    1.4721    0.1869    0.0000
H   -0.0000   -1.4834    0.8900
H    0.0000   -1.4834   -0.8900


