%nprocshared=4
%mem=100MW
%chk=YNARWAUTTJJADX-UHFFFAOYSA-N.chk
#b3lyp/6-31+G(d) opt freq

gas opt

0 1
S   -2.2006    2.4342   -0.7096
C   -1.0216    1.3171   -0.1683
N    0.2437    1.7093   -0.2047
C    0.4994    3.0508   -0.7349
C    1.3556    0.9802    0.2086
C    1.4718   -0.3843   -0.0440
N    0.4308   -1.0929   -0.6421
C    0.6301   -1.7542   -1.9340
C    1.1252   -3.1835   -1.7043
C   -0.7940   -1.1642    0.0005
N   -1.2871   -2.3426    0.3520
C   -2.4167   -2.4525    1.0232
C   -3.1434   -1.3344    1.3909
C   -2.6919   -0.0788    1.0235
C   -1.5009    0.0153    0.2993
N    2.5708   -1.0381    0.3083
C    3.5657   -0.4427    0.9376
C    3.5025    0.8986    1.2546
C    2.3823    1.6304    0.8854
H    0.0531    3.7939   -0.0740
H    1.5747    3.2184   -0.7963
H    0.0607    3.1384   -1.7288
H   -0.3138   -1.7797   -2.4785
H    1.3695   -1.2024   -2.5144
H    2.0691   -3.1579   -1.1598
H    0.3858   -3.7353   -1.1240
H    1.2735   -3.6755   -2.6656
H   -2.7813   -3.4333    1.2904
H   -4.0554   -1.4404    1.9596
H   -3.2454    0.8085    1.2929
H    4.4417   -1.0132    1.2088
H    4.3151    1.3737    1.7842
H    2.3094    2.6824    1.1186


