%nprocshared=4
%mem=100MW
%chk=YNPNZTXNASCQKK-UHFFFAOYSA-N.chk
#b3lyp/6-31+G(d) opt freq

gas opt

0 1
C    0.7329   -0.3771   -0.0013
C   -0.7329   -0.3771   -0.0007
C   -1.4115    0.8624    0.0005
C   -0.6741    2.0693    0.0006
C    0.6741    2.0693   -0.0004
C    1.4115    0.8624   -0.0007
C    2.8136    0.8739   -0.0007
C    3.5004   -0.3045   -0.0000
C    2.8292   -1.5217    0.0002
C    1.4641   -1.5664    0.0033
C   -2.8136    0.8739    0.0010
C   -3.5004   -0.3045    0.0004
C   -2.8292   -1.5217   -0.0008
C   -1.4641   -1.5664   -0.0018
H   -1.2024    3.0113    0.0012
H    1.2024    3.0113   -0.0002
H    3.3478    1.8126   -0.0016
H    4.5803   -0.2918   -0.0001
H    3.3935   -2.4425    0.0003
H    0.9525   -2.5176    0.0039
H   -3.3478    1.8126    0.0023
H   -4.5803   -0.2918    0.0012
H   -3.3935   -2.4425   -0.0009
H   -0.9526   -2.5176   -0.0027


