%nprocshared=4
%mem=100MW
%chk=YRHYCMZPEVDGFQ-UHFFFAOYSA-N.chk
#b3lyp/6-31+G(d) opt freq

gas opt

0 1
O    3.9637   -1.2152    0.0029
C    4.0028   -0.0076    0.0033
O    5.1864    0.6256   -0.0016
C    6.3779   -0.2043   -0.0071
C    2.7228    0.7877    0.0029
C    1.5283   -0.1683    0.0021
C    0.2287    0.6391    0.0017
C   -0.9658   -0.3170    0.0009
C   -2.2653    0.4905    0.0005
C   -3.4598   -0.4656   -0.0003
C   -4.7594    0.3419   -0.0007
C   -5.9539   -0.6142   -0.0014
C   -7.2535    0.1933   -0.0018
H    6.3785   -0.8332   -0.8974
H    7.2633    0.4314   -0.0107
H    6.3862   -0.8339    0.8826
H    2.6849    1.4157    0.8930
H    2.6857    1.4161   -0.8870
H    1.5661   -0.7963   -0.8880
H    1.5653   -0.7968    0.8919
H    0.1909    1.2671    0.8918
H    0.1917    1.2675   -0.8882
H   -0.9279   -0.9449   -0.8892
H   -0.9288   -0.9454    0.8908
H   -2.3032    1.1185    0.8906
H   -2.3024    1.1189   -0.8893
H   -3.4220   -1.0935   -0.8904
H   -3.4228   -1.0940    0.8896
H   -4.7972    0.9699    0.8895
H   -4.7964    0.9703   -0.8905
H   -5.9161   -1.2421   -0.8916
H   -5.9169   -1.2426    0.8884
H   -7.2905    0.8217   -0.8917
H   -8.1044   -0.4878   -0.0024
H   -7.2913    0.8213    0.8883


