%nprocshared=4
%mem=100MW
%chk=YTBRNEUEFCNVHC-UHFFFAOYSA-N.chk
#b3lyp/6-31+G(d) opt freq

gas opt

0 1
Cl   -5.2468    0.0000    0.0000
C   -3.5108    0.0003   -0.0005
C   -2.8209    1.1288    0.4083
C   -1.4409    1.1338    0.4101
C   -0.7419    0.0004   -0.0006
C    0.7419    0.0004   -0.0002
C    1.4407   -1.1339    0.4083
C    2.8206   -1.1291    0.4070
C    3.5108    0.0002    0.0007
Cl    5.2468   -0.0001    0.0007
C    2.8210    1.1296   -0.4060
C    1.4411    1.1326   -0.4137
C   -1.4409   -1.1330   -0.4113
C   -2.8208   -1.1299   -0.4044
H   -3.3636    2.0068    0.7261
H   -0.9036    2.0147    0.7289
H    0.9032   -2.0152    0.7258
H    3.3631   -2.0076    0.7237
H    3.3638    2.0082   -0.7217
H    0.9039    2.0141   -0.7311
H   -0.9035   -2.0136   -0.7307
H   -3.3634   -2.0080   -0.7222


