%nprocshared=4
%mem=100MW
%chk=YUWFEBAXEOLKSG-UHFFFAOYSA-N.chk
#b3lyp/6-31+G(d) opt freq

gas opt

0 1
C    2.8531    0.4565    0.0016
C    1.3650    0.2184    0.0016
C    0.4933    1.2913    0.0007
C    1.0312    2.6991   -0.0003
C   -0.8716    1.0729    0.0002
C   -1.8219    2.2426   -0.0013
C   -1.3650   -0.2184    0.0007
C   -2.8531   -0.4565   -0.0003
C   -0.4933   -1.2913    0.0016
C   -1.0312   -2.6991    0.0016
C    0.8716   -1.0729   -0.0033
C    1.8219   -2.2425   -0.0023
H    3.2117    0.5147    1.0293
H    3.3525   -0.3652   -0.5116
H    3.0713    1.3924   -0.5129
H    1.1610    3.0377   -1.0282
H    0.3294    3.3565    0.5129
H    1.9922    2.7212    0.5136
H   -2.0505    2.5237   -1.0293
H   -2.7420    1.9638    0.5124
H   -1.3605    3.0862    0.5121
H   -3.2110   -0.5146   -1.0282
H   -3.0716   -1.3924    0.5139
H   -3.3528    0.3652    0.5126
H   -1.1601   -3.0388   -1.0261
H   -0.3298   -3.3560    0.5161
H   -1.9926   -2.7207    0.5148
H    2.0479   -2.5279   -1.0297
H    2.7433   -1.9617    0.5078
H    1.3618   -3.0840    0.5157


