%nprocshared=4
%mem=100MW
%chk=YWBVHLJPRPCRSD-UHFFFAOYSA-N.chk
#b3lyp/6-31+G(d) opt freq

gas opt

0 1
F   -4.4166   -1.8717   -1.3331
C   -4.5195   -0.5689   -0.8336
F   -4.3367    0.3460   -1.8760
F   -5.7858   -0.3849   -0.2682
C   -3.4630   -0.3494    0.2184
C   -2.2214    0.1336   -0.1425
C   -1.2454    0.3361    0.8314
C    0.0904    0.8553    0.4499
C    1.2973    0.0329    0.6140
O    1.2850   -0.9936    1.2757
C    2.5197    0.5009   -0.0545
C    3.7001   -0.3855   -0.1959
C    4.8929   -0.0710    0.4530
C    5.9882   -0.8996    0.3177
C    5.9041   -2.0401   -0.4605
C    4.7231   -2.3570   -1.1072
C    3.6193   -1.5393   -0.9737
C    2.5355    1.7764   -0.5417
N    1.4587    2.5843   -0.4016
C    1.6225    4.0230   -0.6241
C    0.2352    2.1098   -0.0696
C   -1.5296    0.0492    2.1657
C   -2.7743   -0.4332    2.5149
C   -3.7412   -0.6269    1.5445
H   -2.0065    0.3538   -1.1778
H    4.9599    0.8196    1.0603
H    6.9129   -0.6569    0.8201
H    6.7639   -2.6854   -0.5638
H    4.6633   -3.2483   -1.7141
H    2.6977   -1.7877   -1.4791
H    3.4175    2.1449   -1.0444
H    2.6591    4.2343   -0.8864
H    0.9698    4.3416   -1.4368
H    1.3605    4.5635    0.2855
H   -0.6351    2.7341   -0.2079
H   -0.7768    0.2039    2.9245
H   -2.9955   -0.6561    3.5482
H   -4.7141   -1.0047    1.8223


