%nprocshared=4
%mem=100MW
%chk=YZMCKZRAOLZXAZ-UHFFFAOYSA-N.chk
#b3lyp/6-31+G(d) opt freq

gas opt

0 1
S    0.6104   -1.8986   -0.3875
O    1.2805   -3.0492    0.1089
O    0.1936   -1.7648   -1.7394
N   -0.7477   -1.7113    0.5413
C   -1.6002   -0.6430    0.3145
N   -1.3379    0.2384   -0.6463
C   -2.1467    1.2552   -0.8650
C   -1.8146    2.2323   -1.9632
N   -3.2382    1.4414   -0.1503
C   -3.5668    0.6058    0.8247
C   -4.8185    0.8316    1.6330
C   -2.7513   -0.4776    1.0871
C    1.6640   -0.5264   -0.0535
C    2.5977   -0.6051    0.9635
C    3.4251    0.4686    1.2279
C    3.3186    1.6285    0.4709
N    4.1542    2.7160    0.7354
C    2.3796    1.7041   -0.5500
C    1.5592    0.6246   -0.8127
H   -0.9465   -2.3496    1.2442
H   -2.2694    1.8988   -2.8960
H   -2.2013    3.2174   -1.7023
H   -0.7329    2.2873   -2.0858
H   -5.6545    0.3166    1.1598
H   -4.6753    0.4421    2.6409
H   -5.0310    1.8995    1.6830
H   -2.9939   -1.1750    1.8753
H    2.6797   -1.5070    1.5519
H    4.1538    0.4067    2.0226
H    4.8097    2.6620    1.4483
H    4.0789    3.5254    0.2061
H    2.2942    2.6044   -1.1404
H    0.8292    0.6826   -1.6065


