%nprocshared=4
%mem=100MW
%chk=ZCINFQNVNLHJOV-UHFFFAOYSA-N.chk
#b3lyp/6-31+G(d) opt freq

gas opt

0 1
O   -3.0085    1.1736    0.0822
N   -1.9487    1.7672   -0.0076
O   -1.9377    2.9799   -0.1214
C   -0.6740    1.0155    0.0278
C   -0.5301   -0.2911    0.2476
O   -1.5475   -1.1632    0.4786
C   -1.7727   -2.1731   -0.5070
C   -3.0247   -2.9728   -0.1410
C    0.8962   -0.6465    0.2015
O    1.3420   -1.7659    0.3648
N    1.6352    0.4505   -0.0487
C    3.0942    0.5036   -0.1699
C    3.7322    0.0293    1.1373
C    3.5442   -0.4046   -1.3160
C    0.7101    1.5828   -0.1848
H   -1.9124   -1.7051   -1.4814
H   -0.9128   -2.8418   -0.5450
H   -2.8850   -3.4408    0.8335
H   -3.8847   -2.3041   -0.1029
H   -3.1965   -3.7431   -0.8928
H    3.4047    1.5282   -0.3749
H    3.4117    0.6764    1.9538
H    3.4218   -0.9952    1.3423
H    4.8178    0.0689    1.0471
H    3.0897   -0.0667   -2.2473
H    4.6297   -0.3650   -1.4062
H    3.2337   -1.4291   -1.1110
H    0.7950    2.0198   -1.1798
H    0.9221    2.3345    0.5756


