%nprocshared=4
%mem=100MW
%chk=ZDPHROOEEOARMN-UHFFFAOYSA-N.chk
#b3lyp/6-31+G(d) opt freq

gas opt

0 1
O    5.0542   -1.3319    0.0006
C    5.1311   -0.1261    0.0013
O    6.3339    0.4697   -0.0037
C    3.8766    0.7090    0.0016
C    2.6528   -0.2092    0.0009
C    1.3791    0.6386    0.0012
C    0.1553   -0.2796    0.0004
C   -1.1184    0.5682    0.0007
C   -2.3422   -0.3500   -0.0001
C   -3.6158    0.4978    0.0002
C   -4.8397   -0.4203   -0.0006
C   -6.1133    0.4275   -0.0003
C   -7.3372   -0.4907   -0.0010
H    7.1097   -0.1076   -0.0078
H    3.8587    1.3375    0.8920
H    3.8591    1.3385   -0.8880
H    2.6706   -0.8378   -0.8895
H    2.6703   -0.8388    0.8905
H    1.3613    1.2671    0.8915
H    1.3616    1.2682   -0.8885
H    0.1731   -0.9081   -0.8900
H    0.1728   -0.9092    0.8900
H   -1.1362    1.1967    0.8910
H   -1.1359    1.1978   -0.8889
H   -2.3243   -0.9785   -0.8904
H   -2.3246   -0.9796    0.8895
H   -3.6337    1.1264    0.8906
H   -3.6334    1.1274   -0.8894
H   -4.8218   -1.0489   -0.8909
H   -4.8221   -1.0499    0.8891
H   -6.1312    1.0560    0.8901
H   -6.1309    1.0571   -0.8899
H   -8.2445    0.1133   -0.0008
H   -7.3193   -1.1192   -0.8914
H   -7.3196   -1.1203    0.8886


