%nprocshared=4
%mem=100MW
%chk=ZEKZLJVOYLTDKK-UHFFFAOYSA-N.chk
#b3lyp/6-31+G(d) opt freq

gas opt

0 1
F    0.7423   -2.1622   -0.2318
C    0.3952   -0.8669   -0.0672
C    1.3741    0.0971    0.1219
N    2.7179   -0.2759    0.1418
C    3.4688    0.4031   -0.9233
C    4.9171   -0.0919   -0.9180
C    5.7117    0.6430   -1.9994
N    5.5177    0.1728    0.3969
C    4.7667   -0.5062    1.4620
C    3.3185   -0.0112    1.4567
C    1.0250    1.4385    0.2920
F    1.9900    2.3661    0.4747
C   -0.2878    1.8176    0.2741
C   -1.2855    0.8585    0.0852
C   -2.7084    1.2365    0.0616
O   -3.0600    2.3948    0.2049
C   -3.6889    0.1574   -0.1429
C   -5.1277    0.4532   -0.1794
O   -5.9289   -0.4454   -0.3488
O   -5.5593    1.7209   -0.0250
C   -3.2349   -1.1364   -0.3002
N   -1.9316   -1.4431   -0.2730
C   -1.5363   -2.8428   -0.4484
C   -1.3052   -3.4830    0.9219
C   -0.9451   -0.4951   -0.0925
H    3.0124    0.1816   -1.8880
H    3.4517    1.4793   -0.7510
H    4.9359   -1.1633   -1.1177
H    5.6933    1.7142   -1.7990
H    6.7430    0.2902   -1.9954
H    5.2648    0.4480   -2.9743
H    6.4898   -0.0971    0.4113
H    4.7838   -1.5824    1.2897
H    5.2231   -0.2847    2.4267
H    3.2996    1.0602    1.6560
H    2.7524   -0.5347    2.2271
H   -0.5532    2.8561    0.4061
H   -6.5148    1.8663   -0.0564
H   -3.9546   -1.9277   -0.4498
H   -2.3265   -3.3807   -0.9721
H   -0.6165   -2.8902   -1.0313
H   -1.0111   -4.5244    0.7915
H   -0.5150   -2.9451    1.4457
H   -2.2250   -3.4355    1.5049


