%nprocshared=4
%mem=100MW
%chk=ZGEGCLOFRBLKSE-UHFFFAOYSA-N.chk
#b3lyp/6-31+G(d) opt freq

gas opt

0 1
C   -2.5992   -0.2721   -0.3078
C   -3.5693    0.0593    0.5078
C   -1.3177    0.5209   -0.3159
C   -0.1339   -0.4207   -0.0858
C    1.1672    0.3844   -0.0940
C    2.3510   -0.5572    0.1362
C    3.6520    0.2478    0.1279
H   -2.7161   -1.1162   -0.9712
H   -3.4507    0.9007    1.1744
H   -4.4877   -0.5090    0.5136
H   -1.2044    1.0184   -1.2791
H   -1.3475    1.2677    0.4775
H   -0.2472   -0.9182    0.8774
H   -0.1041   -1.1675   -0.8792
H    1.2805    0.8819   -1.0572
H    1.1373    1.1312    0.6994
H    2.2376   -1.0547    1.0993
H    2.3808   -1.3040   -0.6572
H    3.7654    0.7453   -0.8353
H    3.6222    0.9947    0.9213
H    4.4954   -0.4229    0.2919


