%nprocshared=4
%mem=100MW
%chk=ZIEWAMOXCOLNSJ-UHFFFAOYSA-N.chk
#b3lyp/6-31+G(d) opt freq

gas opt

0 1
Cl    4.1550    1.7611    0.7549
C    3.3794    0.5774   -0.3623
Cl    3.9821   -1.0813    0.0067
C    1.8841    0.6205   -0.1805
O    1.3868    1.4417    0.5604
N    1.0994   -0.2536   -0.8414
C   -0.2653   -0.2791   -0.6006
C   -0.8533   -1.4202   -0.1700
Cl    0.1072   -2.8447    0.0790
C   -2.2986   -1.4602    0.0883
O   -2.8671   -2.5255    0.2311
C   -3.0570   -0.1908    0.1736
C   -2.4524    0.9986   -0.2742
C   -1.0755    0.9452   -0.8098
O   -0.6160    1.8884   -1.4215
C   -3.1489    2.1976   -0.2021
C   -4.4369    2.2140    0.3121
C   -5.0298    1.0468    0.7522
C   -4.3460   -0.1585    0.6858
H    3.6277    0.8334   -1.3923
H    1.4898   -0.8648   -1.4855
H   -2.6897    3.1132   -0.5444
H   -4.9799    3.1459    0.3689
H   -6.0330    1.0727    1.1514
H   -4.8152   -1.0679    1.0311


