%nprocshared=4
%mem=100MW
%chk=ZISSAWUMDACLOM-UHFFFAOYSA-N.chk
#b3lyp/6-31+G(d) opt freq

gas opt

0 1
C    0.6204   -0.0000    0.0030
C   -0.8161   -0.0000    0.5298
C   -1.5432    1.2492    0.0282
C   -1.5432   -1.2492    0.0282
C    1.3475    1.2492    0.5046
C    1.3475   -1.2492    0.5046
C    0.6026    0.0000   -1.5269
H   -0.8034   -0.0000    1.6197
H   -1.5559    1.2492   -1.0617
H   -2.5666    1.2492    0.4035
H   -1.0252    2.1392    0.3855
H   -1.0252   -2.1392    0.3855
H   -2.5666   -1.2492    0.4035
H   -1.5559   -1.2492   -1.0617
H    1.3602    1.2492    1.5945
H    2.3709    1.2492    0.1294
H    0.8295    2.1392    0.1473
H    0.8295   -2.1392    0.1473
H    2.3709   -1.2492    0.1294
H    1.3602   -1.2492    1.5945
H    0.0845    0.8900   -1.8842
H    1.6259    0.0000   -1.9021
H    0.0845   -0.8900   -1.8842


