%nprocshared=4
%mem=100MW
%chk=ZJJXGWJIGJFDTL-UHFFFAOYSA-N.chk
#b3lyp/6-31+G(d) opt freq

gas opt

0 1
S   -3.2903   -2.7031   -0.0516
O   -3.2128   -3.8394    0.7981
O   -3.5429   -2.7920   -1.4471
N   -4.4732   -1.7293    0.5767
C   -4.7553   -0.5484   -0.0086
O   -4.1413   -0.1982   -0.9978
N   -5.7180    0.2442    0.5028
C   -6.0246    1.5277   -0.1334
C   -7.4655    1.9267    0.1917
C   -7.7857    3.2673   -0.4726
C   -6.8286    4.3388    0.0535
C   -5.3878    3.9397   -0.2716
C   -5.0676    2.5992    0.3928
C   -1.7611   -1.8456    0.1236
C   -1.0031   -2.0109    1.2677
C    0.1966   -1.3380    1.4051
C    0.6386   -0.5003    0.3983
C    1.9462    0.2336    0.5483
C    3.0801   -0.6238   -0.0175
N    4.3513    0.0896    0.1284
C    5.4954   -0.4769   -0.3035
O    5.4725   -1.5795   -0.8138
C    6.7809    0.2445   -0.1559
N    6.8081    1.4517    0.4025
C    7.9534    2.0904    0.5320
C    9.1308    1.5064    0.0866
C   10.4379    2.2413    0.2371
N    9.1093    0.3079   -0.4687
C    7.9662   -0.3420   -0.5967
C   -0.1188   -0.3360   -0.7464
C   -1.3166   -1.0119   -0.8855
H   -4.9630   -2.0087    1.3659
H   -6.2079   -0.0353    1.2920
H   -5.9081    1.4351   -1.2132
H   -8.1473    1.1634   -0.1831
H   -7.5820    2.0194    1.2715
H   -7.6692    3.1746   -1.5524
H   -8.8122    3.5515   -0.2410
H   -7.0568    5.2938   -0.4198
H   -6.9452    4.4314    1.1333
H   -5.2713    3.8471   -1.3514
H   -4.7060    4.7031    0.1033
H   -5.1841    2.6918    1.4726
H   -4.0411    2.3149    0.1612
H   -1.3483   -2.6654    2.0543
H    0.7885   -1.4666    2.2993
H    1.8979    1.1770    0.0045
H    2.1326    0.4318    1.6038
H    3.1284   -1.5672    0.5263
H    2.8937   -0.8220   -1.0730
H    4.3695    0.9698    0.5358
H    7.9757    3.0704    0.9853
H   10.8887    1.9879    1.1967
H   11.1123    1.9520   -0.5688
H   10.2580    3.3154    0.1925
H    7.9489   -1.3219   -1.0504
H    0.2266    0.3182   -1.5332
H   -1.9083   -0.8835   -1.7799


