%nprocshared=4
%mem=100MW
%chk=ZMISODWVFHHWNR-UHFFFAOYSA-N.chk
#b3lyp/6-31+G(d) opt freq

gas opt

0 1
O   -0.1008   -0.0021   -1.9742
C    0.0617   -0.0009   -0.5544
C    0.8309   -1.2273   -0.1358
C    1.7593   -1.7871   -0.9936
C    2.4649   -2.9120   -0.6096
C    2.2424   -3.4770    0.6323
C    1.3147   -2.9167    1.4904
C    0.6123   -1.7892    1.1081
C    0.8182    1.2336   -0.1364
C    1.7408    1.8025   -0.9944
C    2.4348    2.9348   -0.6110
C    2.2059    3.4986    0.6303
C    1.2827    2.9302    1.4879
C    0.5856    1.8003    1.1027
C   -1.3135   -0.0078    0.1162
C   -2.0961    1.2379   -0.3083
C   -3.4923    1.1948    0.3169
N   -4.1910   -0.0186   -0.1257
C   -3.4827   -1.2285    0.3114
C   -2.0863   -1.2577   -0.3139
H    0.7322    0.0021   -2.4654
H    1.9331   -1.3457   -1.9638
H    3.1897   -3.3498   -1.2800
H    2.7932   -4.3563    0.9320
H    1.1407   -3.3583    2.4605
H   -0.1125   -1.3514    1.7785
H    1.9196    1.3621   -1.9642
H    3.1561    3.3789   -1.2810
H    2.7487    4.3828    0.9301
H    1.1042    3.3704    2.4578
H   -0.1357    1.3563    1.7728
H   -1.1905   -0.0092    1.1993
H   -1.5721    2.1307    0.0328
H   -2.1843    1.2596   -1.3945
H   -3.4037    1.1870    1.4032
H   -4.0572    2.0733    0.0050
H   -5.1472   -0.0231    0.1963
H   -3.3942   -1.2249    1.3978
H   -4.0406   -2.1100   -0.0044
H   -2.1743   -1.2753   -1.4002
H   -1.5552   -2.1479    0.0232


