%nprocshared=4
%mem=100MW
%chk=ZNNLBTZKUZBEKO-UHFFFAOYSA-N.chk
#b3lyp/6-31+G(d) opt freq

gas opt

0 1
Cl   -7.3377   -3.6843    0.8838
C   -7.2786   -2.0355    0.3436
C   -6.0690   -1.3753    0.2836
C   -6.0208   -0.0489   -0.1514
C   -4.7304    0.6632   -0.2185
O   -4.6922    1.8179   -0.5977
N   -3.5939    0.0339    0.1404
C   -2.3126    0.7411    0.0737
C   -1.1904   -0.1925    0.5320
C    0.1277    0.5349    0.4634
C    0.5839    1.2436    1.5591
C    1.7928    1.9109    1.4961
C    2.5459    1.8691    0.3376
S    4.0866    2.7201    0.2572
O    4.3373    2.9669   -1.1196
O    4.0270    3.7511    1.2333
N    5.2571    1.6638    0.7636
C    5.5212    0.5551    0.0442
O    4.9001    0.3305   -0.9766
N    6.4738   -0.3046    0.4564
C    6.7609   -1.5097   -0.3256
C    8.1967   -1.9635   -0.0546
C    8.4965   -3.2221   -0.8713
C    7.5257   -4.3342   -0.4693
C    6.0899   -3.8804   -0.7403
C    5.7900   -2.6218    0.0764
C    2.0903    1.1593   -0.7576
C    0.8831    0.4888   -0.6934
C   -7.2050    0.6016   -0.5241
O   -7.1699    1.8898   -0.9486
C   -8.4161    2.4873   -1.3119
C   -8.4124   -0.0769   -0.4577
C   -8.4464   -1.3898   -0.0310
H   -5.1608   -1.8831    0.5728
H   -3.6243   -0.8872    0.4429
H   -2.1254    1.0579   -0.9523
H   -2.3459    1.6155    0.7236
H   -1.3776   -0.5093    1.5580
H   -1.1570   -1.0669   -0.1179
H   -0.0045    1.2762    2.4642
H    2.1489    2.4651    2.3519
H    5.7526    1.8430    1.5780
H    6.9693   -0.1254    1.2708
H    6.6432   -1.2908   -1.3869
H    8.8883   -1.1713   -0.3410
H    8.3143   -2.1825    1.0067
H    8.3789   -3.0032   -1.9326
H    9.5194   -3.5454   -0.6782
H    7.7392   -5.2309   -1.0511
H    7.6433   -4.5532    0.5920
H    5.9722   -3.6615   -1.8016
H    5.3982   -4.6727   -0.4539
H    5.9077   -2.8408    1.1377
H    4.7672   -2.2985   -0.1167
H    2.6788    1.1264   -1.6626
H    0.5272   -0.0657   -1.5490
H   -9.0866    2.4802   -0.4525
H   -8.2465    3.5153   -1.6320
H   -8.8658    1.9221   -2.1282
H   -9.3271    0.4210   -0.7438
H   -9.3894   -1.9140    0.0185


