%nprocshared=4
%mem=100MW
%chk=ZNSSPLQZSUWFJT-UHFFFAOYSA-N.chk
#b3lyp/6-31+G(d) opt freq

gas opt

0 1
O   -0.1239   -2.0852    0.0086
C   -0.3237   -0.8867    0.0046
O    0.7166   -0.0302    0.0018
C    2.0478   -0.6100    0.0038
C    3.0914    0.5088    0.0000
C    4.4941   -0.1021    0.0021
C    5.5377    1.0167   -0.0016
C    6.9404    0.4058    0.0005
C   -1.7046   -0.3694   -0.0033
C   -2.7853   -1.2562   -0.0062
C   -4.0730   -0.7691   -0.0137
C   -4.2993    0.6025   -0.0183
O   -5.5701    1.0785   -0.0257
C   -3.2276    1.4878   -0.0150
C   -1.9367    1.0091   -0.0022
H    2.1757   -1.2232    0.8958
H    2.1758   -1.2292   -0.8841
H    2.9635    1.1220   -0.8920
H    2.9635    1.1280    0.8879
H    4.6220   -0.7153    0.8942
H    4.6221   -0.7213   -0.8858
H    5.4098    1.6299   -0.8937
H    5.4098    1.6359    0.8863
H    7.0683   -0.2074    0.8926
H    7.0684   -0.2134   -0.8874
H    7.6839    1.2028   -0.0021
H   -2.6103   -2.3219   -0.0029
H   -4.9084   -1.4535   -0.0162
H   -5.9426    1.2187    0.8556
H   -3.4078    2.5527   -0.0183
H   -1.1047    1.6976    0.0007


