%nprocshared=4
%mem=100MW
%chk=ZQUPQXINXTWCQR-UHFFFAOYSA-N.chk
#b3lyp/6-31+G(d) opt freq

gas opt

0 1
Cl    0.6286   -2.2403    0.5987
C    1.3961   -0.7231    0.2484
C    2.7701   -0.6575    0.1101
Cl    3.7286   -2.0940    0.2877
C    3.3830    0.5525   -0.1703
Cl    5.1087    0.6283   -0.3433
C    2.6243    1.7015   -0.3136
C    1.2511    1.6471   -0.1770
Cl    0.3018    3.0893   -0.3571
C    0.6277    0.4306    0.1001
C   -0.8472    0.3666    0.2473
C   -1.6100   -0.3581   -0.6666
C   -2.9825   -0.4145   -0.5252
Cl   -3.9347   -1.3170   -1.6619
C   -3.6005    0.2481    0.5233
Cl   -5.3263    0.1739    0.6964
C   -2.8464    0.9684    1.4330
C   -1.4735    1.0262    1.3029
H    3.1073    2.6424   -0.5323
H   -1.1287   -0.8743   -1.4840
H   -3.3326    1.4829    2.2487
H   -0.8861    1.5884    2.0138


