%nprocshared=4
%mem=100MW
%chk=ZRKWMRDKSOPRRS-UHFFFAOYSA-N.chk
#b3lyp/6-31+G(d) opt freq

gas opt

0 1
O   -2.3131   -0.4567   -0.0000
N   -1.1256   -0.7276    0.0000
N   -0.2483    0.2180    0.0000
C    1.0657   -0.0818   -0.0000
O    1.8920    0.8088   -0.0000
N    1.4630   -1.3697    0.0000
C   -0.6801    1.6179    0.0000
H    0.8033   -2.0808    0.0000
H    2.4087   -1.5855    0.0000
H   -0.7872    1.9651    1.0277
H    0.0632    2.2275   -0.5138
H   -1.6377    1.7027   -0.5138


