%nprocshared=4
%mem=100MW
%chk=ZRSNZINYAWTAHE-UHFFFAOYSA-N.chk
#b3lyp/6-31+G(d) opt freq

gas opt

0 1
O   -3.4579   -0.8667   -0.0013
C   -2.8760    0.1975   -0.0005
C   -1.4078    0.2317   -0.0006
C   -0.7335    1.4590    0.0003
C    0.6374    1.4854    0.0007
C    1.3582    0.2960   -0.0002
O    2.7144    0.3275   -0.0002
C    3.3926   -0.9303   -0.0012
C    0.6934   -0.9257   -0.0006
C   -0.6772   -0.9631    0.0043
H   -3.4376    1.1200   -0.0043
H   -1.2924    2.3832    0.0003
H    1.1583    2.4314    0.0014
H    4.4696   -0.7624   -0.0011
H    3.1128   -1.4947    0.8884
H    3.1127   -1.4933   -0.8915
H    1.2578   -1.8465   -0.0013
H   -1.1925   -1.9122    0.0040


