%nprocshared=4
%mem=100MW
%chk=ZTQSAGDEMFDKMZ-UHFFFAOYSA-N.chk
#b3lyp/6-31+G(d) opt freq

gas opt

0 1
O   -2.2486    0.1616    0.3327
C   -1.3237   -0.2966   -0.2942
C   -0.0008    0.4246   -0.3210
C    1.1075   -0.5257    0.1370
C    2.4506    0.2065    0.1098
H   -1.4434   -1.2255   -0.8320
H    0.2077    0.7636   -1.3358
H   -0.0419    1.2841    0.3480
H    0.8990   -0.8647    1.1517
H    1.1486   -1.3852   -0.5320
H    3.2401   -0.4705    0.4361
H    2.6591    0.5455   -0.9050
H    2.4095    1.0661    0.7788


