%nprocshared=4
%mem=100MW
%chk=ZWUAUTPCFIIFAS-UHFFFAOYSA-N.chk
#b3lyp/6-31+G(d) opt freq

gas opt

0 1
O    1.2691   -1.5524    0.0111
C    1.5660   -0.3765    0.0050
N    2.8627   -0.0090   -0.0017
C    3.2214    1.4114   -0.0091
C    4.0096    1.7450    1.2591
C    4.0809    1.7139   -1.2382
C    3.9134   -1.0299   -0.0015
C    3.7749   -1.9041    1.2465
C    3.7784   -1.9010   -1.2520
C    0.4852    0.6736   -0.0015
O   -0.8159    0.0290    0.0010
C   -1.8968    0.8330   -0.0041
O   -1.7562    2.0395   -0.0106
C   -3.2530    0.2473   -0.0019
C   -4.3755    1.0778   -0.0073
C   -5.6390    0.5243   -0.0056
C   -5.7955   -0.8505    0.0017
C   -4.6874   -1.6793    0.0075
C   -3.4182   -1.1391   -0.0004
H    2.3144    2.0150   -0.0425
H    4.9617    1.2145    1.2452
H    4.1926    2.8187    1.3013
H    3.4362    1.4395    2.1342
H    3.5661    1.3698   -2.1352
H    4.2516    2.7883   -1.3067
H    5.0375    1.1990   -1.1483
H    4.8901   -0.5460    0.0005
H    3.7819   -1.2727    2.1350
H    2.8364   -2.4566    1.2008
H    4.6077   -2.6058    1.2929
H    3.8936   -1.2809   -2.1409
H    4.5499   -2.6709   -1.2435
H    2.7954   -2.3719   -1.2623
H    0.5820    1.3001    0.8852
H    0.5833    1.2904   -0.8948
H   -4.2547    2.1510   -0.0123
H   -6.5081    1.1654   -0.0098
H   -6.7870   -1.2787    0.0033
H   -4.8167   -2.7515    0.0139
H   -2.5542   -1.7871    0.0042


