%nprocshared=4
%mem=100MW
%chk=ZXVONLUNISGICL-UHFFFAOYSA-N.chk
#b3lyp/6-31+G(d) opt freq

gas opt

0 1
O    1.9042   -2.5589    0.0041
N    2.0972   -1.3563    0.0079
O    3.2352   -0.9222    0.0075
C    0.9489   -0.4224    0.0069
C    1.1681    0.9477    0.0112
O    2.4371    1.4339    0.0159
C    0.0898    1.8203    0.0103
C    0.3243    3.3089    0.0145
C   -1.1994    1.3235    0.0052
C   -1.4152   -0.0420    0.0013
N   -2.7974   -0.5716   -0.0042
O   -3.7435    0.1955   -0.0054
O   -2.9887   -1.7745   -0.0076
C   -0.3419   -0.9140   -0.0040
H    2.8067    1.5771   -0.8662
H    0.3837    3.6703   -1.0122
H   -0.4997    3.8051    0.5272
H    1.2586    3.5281    0.5314
H   -2.0393    2.0024    0.0044
H   -0.5130   -1.9803   -0.0074


