%nprocshared=4
%mem=100MW
%chk=ZYJPUMXJBDHSIF-NSHDSACASA-N.chk
#b3lyp/6-31+G(d) opt freq

gas opt

0 1
O    1.5588   -0.4005    1.1144
C    1.3112   -0.0581   -0.0249
O    2.1587    0.7556   -0.6825
C    3.3481    1.1844    0.0313
C    4.1763   -0.0405    0.4246
C    4.1829    2.0964   -0.8701
C    2.9387    1.9492    1.2916
N    0.1910   -0.4972   -0.6322
C   -0.7281   -1.3875    0.0813
H   -0.7474   -1.1190    1.1375
C   -0.2624   -2.8131   -0.0662
O    0.7349   -3.0602   -0.7020
O   -0.9555   -3.8084    0.5088
C   -2.1336   -1.2467   -0.5065
C   -2.6482    0.1463   -0.2500
C   -2.4134    1.1503   -1.1706
C   -2.8854    2.4281   -0.9353
C   -3.5926    2.7017    0.2206
C   -3.8282    1.6975    1.1408
C   -3.3599    0.4187    0.9034
H    4.4680   -0.5854   -0.4733
H    5.0692    0.2814    0.9604
H    3.5816   -0.6902    1.0667
H    3.5929    2.9690   -1.1502
H    5.0758    2.4183   -0.3342
H    4.4746    1.5515   -1.7679
H    2.3440    1.2995    1.9338
H    3.8316    2.2711    1.8275
H    2.3487    2.8218    1.0114
H   -0.0066   -0.2239   -1.5416
H   -0.6179   -4.7063    0.3864
H   -2.0982   -1.4288   -1.5806
H   -2.7982   -1.9718   -0.0368
H   -1.8609    0.9366   -2.0737
H   -2.7014    3.2127   -1.6542
H   -3.9607    3.7002    0.4048
H   -4.3804    1.9113    2.0440
H   -3.5439   -0.3659    1.6223


