%nprocshared=4
%mem=100MW
%chk=ZZLCFHIKESPLTH-UHFFFAOYSA-N.chk
#b3lyp/6-31+G(d) opt freq

gas opt

0 1
C    4.5900    0.0000    0.0006
C    3.0830    0.0003    0.0008
C    2.3941    1.1280   -0.4079
C    1.0139    1.1336   -0.4102
C    0.3145    0.0005    0.0003
C   -1.1694    0.0004   -0.0004
C   -1.8683   -1.1336   -0.4089
C   -3.2485   -1.1283   -0.4071
C   -3.9378   -0.0000   -0.0009
C   -3.2490    1.1285    0.4055
C   -1.8688    1.1324    0.4128
C    1.0136   -1.1327    0.4111
C    2.3938   -1.1291    0.4043
H    4.9535    0.3503    0.9667
H    4.9531   -1.0119   -0.1791
H    4.9533    0.6615   -0.7858
H    2.9372    2.0058   -0.7256
H    0.4770    2.0147   -0.7292
H   -1.3311   -2.0150   -0.7266
H   -3.7913   -2.0067   -0.7239
H   -5.0178   -0.0001   -0.0014
H   -3.7922    2.0068    0.7217
H   -1.3320    2.0141    0.7303
H    0.4765   -2.0135    0.7306
H    2.9367   -2.0068    0.7225


