%nprocshared=4
%mem=100MW
%chk=ZZORFUFYDOWNEF-UHFFFAOYSA-N.chk
#b3lyp/6-31+G(d) opt freq

gas opt

0 1
S    1.4161   -1.8738   -0.5565
O    2.2907   -2.9264   -0.1738
O    0.9826   -1.6712   -1.8945
N    0.0462   -2.0484    0.3575
C   -0.9926   -1.1399    0.2298
N   -0.8989   -0.1235   -0.6246
C   -1.8863    0.7471   -0.7515
O   -1.7554    1.7688   -1.6311
C   -2.8495    2.6826   -1.7315
N   -2.9986    0.6465   -0.0423
C   -3.1634   -0.3426    0.8308
O   -4.3068   -0.4378    1.5526
C   -5.3018    0.5626    1.3265
C   -2.1511   -1.2808    0.9893
C    2.1918   -0.3742   -0.0523
C    3.1227   -0.3890    0.9702
C    3.7326    0.7846    1.3679
C    3.4099    1.9807    0.7395
N    4.0252    3.1693    1.1389
C    2.4744    1.9919   -0.2873
C    1.8724    0.8139   -0.6838
H   -0.0292   -2.7866    0.9822
H   -2.6153    3.4500   -2.4693
H   -3.7457    2.1439   -2.0395
H   -3.0219    3.1508   -0.7625
H   -4.8895    1.5444    1.5592
H   -5.6120    0.5371    0.2819
H   -6.1631    0.3694    1.9660
H   -2.2567   -2.0951    1.6909
H    3.3728   -1.3192    1.4585
H    4.4593    0.7724    2.1667
H    4.6786    3.1602    1.8557
H    3.7991    4.0039    0.6993
H    2.2212    2.9202   -0.7779
H    1.1452    0.8218   -1.4822


