%nprocshared=4
%mem=100MW
%NoSave
%chk=sol.chk
#PM6 opt freq volume SCRF=(solvent=Benzene)

sol opt

0 1
C      1.164197   -0.772764   -0.079013
C      1.221097    0.605231   -0.002294
C      0.066356    1.387338    0.076968
C     -1.154143    0.744648    0.077114
C     -1.239825   -0.636963    0.001056
C     -0.086122   -1.356509   -0.074614
H      2.077903   -1.381565   -0.141168
H      2.198922    1.056200   -0.006060
H      0.174518    2.462940    0.134928
H     -2.038393    1.381409    0.139973
H     -2.232886   -1.063630    0.006635
H     -0.151624   -2.426335   -0.133527

